title                                   
   1.00000000000000     
     0.0000000000000000   -0.0000000000000000   -4.0049045662315494
     0.0000000000000000    4.0049045662315494   -0.0000000000000000
    16.0134883115759514    0.0000000000000000   -0.0000000000000000
   Nb   O    Sr   Ti
     2    12     4     2
Direct
  0.5000000000000000  0.5000000000000000  0.1222042557348447
  0.5000000000000000  0.5000000000000000  0.3777957442651553
  0.5000000000000000  0.5000000000000000  0.2500000000000000
  0.5000000000000000  0.0000000000000000  0.1248173285943161
 -0.0000000000000000  0.5000000000000000  0.1248173285943161
  0.5000000000000000  0.5000000000000000  0.5024197559517146
  0.5000000000000000 -0.0000000000000000  0.3751826714056838
  0.0000000000000000  0.5000000000000000  0.3751826714056838
  0.5000000000000000  0.5000000000000000  0.7500000000000000
  0.5000000000000000 -0.0000000000000000  0.6259113072557047
  0.0000000000000000  0.5000000000000000  0.6259113072557047
  0.5000000000000000  0.5000000000000000 -0.0024197559517144
  0.5000000000000000  0.0000000000000000  0.8740886927442953
 -0.0000000000000000  0.5000000000000000  0.8740886927442953
 -0.0000000000000000  0.0000000000000000  0.2500000000000000
 -0.0000000000000000  0.0000000000000000  0.5141458674580095
 -0.0000000000000000  0.0000000000000000  0.7500000000000000
  0.0000000000000000 -0.0000000000000000 -0.0141458674580092
  0.5000000000000000  0.5000000000000000  0.6283853325354384
  0.5000000000000000  0.5000000000000000  0.8716146674645616
 
  0.00000000E+00  0.00000000E+00  0.00000000E+00
  0.00000000E+00  0.00000000E+00  0.00000000E+00
  0.00000000E+00  0.00000000E+00  0.00000000E+00
  0.00000000E+00  0.00000000E+00  0.00000000E+00
  0.00000000E+00  0.00000000E+00  0.00000000E+00
  0.00000000E+00  0.00000000E+00  0.00000000E+00
  0.00000000E+00  0.00000000E+00  0.00000000E+00
  0.00000000E+00  0.00000000E+00  0.00000000E+00
  0.00000000E+00  0.00000000E+00  0.00000000E+00
  0.00000000E+00  0.00000000E+00  0.00000000E+00
  0.00000000E+00  0.00000000E+00  0.00000000E+00
  0.00000000E+00  0.00000000E+00  0.00000000E+00
  0.00000000E+00  0.00000000E+00  0.00000000E+00
  0.00000000E+00  0.00000000E+00  0.00000000E+00
  0.00000000E+00  0.00000000E+00  0.00000000E+00
  0.00000000E+00  0.00000000E+00  0.00000000E+00
  0.00000000E+00  0.00000000E+00  0.00000000E+00
  0.00000000E+00  0.00000000E+00  0.00000000E+00
  0.00000000E+00  0.00000000E+00  0.00000000E+00
  0.00000000E+00  0.00000000E+00  0.00000000E+00
