title                                   
   1.00000000000000     
    20.2632523666670146    0.0000000000000000    0.0000000000000000
     0.0000000000000000   12.1936759137902708    0.0000000000000000
     0.0000000000000000   -0.0000000000000000    4.0543498500647273
   Nb   O    Sr
    15    45    15
Direct
  0.1000000010201703  0.1668119598100127  0.5000000001268887
  0.3000000119933404  0.1668119598100127  0.5000000001268887
  0.5000000000253806  0.1668119598100127  0.5000000001268887
  0.6999999880066596  0.1668119598100127  0.5000000001268887
  0.8999999759879387  0.1668119598100127  0.5000000001268887
  0.1000000010201703  0.5000000000000000  0.5000000001268887
  0.3000000119933404  0.5000000000000000  0.5000000001268887
  0.5000000000253806  0.5000000000000000  0.5000000001268887
  0.6999999880066596  0.5000000000000000  0.5000000001268887
  0.8999999759879387  0.5000000000000000  0.5000000001268887
  0.1000000010201703  0.8331880111753017  0.5000000001268887
  0.3000000119933404  0.8331880111753017  0.5000000001268887
  0.5000000000253806  0.8331880111753017  0.5000000001268887
  0.6999999880066596  0.8331880111753017  0.5000000001268887
  0.8999999759879387  0.8331880111753017  0.5000000001268887
 -0.0000000000000000  0.1666415223719922  0.5000000001268887
  0.1000000010201703 -0.0000000000000000  0.5000000001268887
  0.1000000010201703  0.1666725305880069  0.0000000000000000
  0.2000000030046820  0.1666415223719922  0.5000000001268887
  0.3000000119933404 -0.0000000000000000  0.5000000001268887
  0.3000000119933404  0.1666725305880069  0.0000000000000000
  0.4000000060093569  0.1666415223719922  0.5000000001268887
  0.5000000000253806 -0.0000000000000000  0.5000000001268887
  0.5000000000253806  0.1666725305880069  0.0000000000000000
  0.6000000239866807  0.1666415223719922  0.5000000001268887
  0.6999999880066596 -0.0000000000000000  0.5000000001268887
  0.6999999880066596  0.1666725305880069 -0.0000000000000000
  0.8000000120187210  0.1666415223719922  0.5000000001268887
  0.8999999759879387 -0.0000000000000000  0.5000000001268887
  0.8999999759879387  0.1666725305880069 -0.0000000000000000
  0.0000000000000000  0.5000000000000000  0.5000000001268887
  0.1000000010201703  0.3331546278789947  0.5000000001268887
  0.1000000010201703  0.5000000000000000  0.0000000000000000
  0.2000000030046820  0.5000000000000000  0.5000000001268887
  0.3000000119933404  0.3331546278789947  0.5000000001268887
  0.3000000119933404  0.5000000000000000  0.0000000000000000
  0.4000000060093569  0.5000000000000000  0.5000000001268887
  0.5000000000253806  0.3331546278789947  0.5000000001268887
  0.5000000000253806  0.5000000000000000  0.0000000000000000
  0.6000000239866807  0.5000000000000000  0.5000000001268887
  0.6999999880066596  0.3331546278789947  0.5000000001268887
  0.6999999880066596  0.5000000000000000  0.0000000000000000
  0.8000000120187210  0.5000000000000000  0.5000000001268887
  0.8999999759879387  0.3331546278789947  0.5000000001268887
  0.8999999759879387  0.5000000000000000 -0.0000000000000000
  0.0000000000000000  0.8333584486133221  0.5000000001268887
  0.1000000010201703  0.6668454011356909  0.5000000001268887
  0.1000000010201703  0.8333274403973072 -0.0000000000000000
  0.2000000030046820  0.8333584486133221  0.5000000001268887
  0.3000000119933404  0.6668454011356909  0.5000000001268887
  0.3000000119933404  0.8333274403973072 -0.0000000000000000
  0.4000000060093569  0.8333584486133221  0.5000000001268887
  0.5000000000253806  0.6668454011356909  0.5000000001268887
  0.5000000000253806  0.8333274403973072  0.0000000000000000
  0.6000000239866807  0.8333584486133221  0.5000000001268887
  0.6999999880066596  0.6668454011356909  0.5000000001268887
  0.6999999880066596  0.8333274403973072  0.0000000000000000
  0.8000000120187210  0.8333584486133221  0.5000000001268887
  0.8999999759879387  0.6668454011356909  0.5000000001268887
  0.8999999759879387  0.8333274403973072  0.0000000000000000
 -0.0000000000000000 -0.0000000000000000 -0.0000000000000000
  0.2000000030046820 -0.0000000000000000  0.0000000000000000
  0.4000000060093569 -0.0000000000000000  0.0000000000000000
  0.6000000239866807 -0.0000000000000000 -0.0000000000000000
  0.8000000120187210 -0.0000000000000000  0.0000000000000000
 -0.0000000000000000  0.3334289017271124  0.0000000000000000
  0.2000000030046820  0.3334289017271124  0.0000000000000000
  0.4000000060093569  0.3334289017271124  0.0000000000000000
  0.6000000239866807  0.3334289017271124 -0.0000000000000000
  0.8000000120187210  0.3334289017271124  0.0000000000000000
  0.0000000000000000  0.6665711272875737  0.0000000000000000
  0.2000000030046820  0.6665711272875737 -0.0000000000000000
  0.4000000060093569  0.6665711272875737 -0.0000000000000000
  0.6000000239866807  0.6665711272875737  0.0000000000000000
  0.8000000120187210  0.6665711272875737 -0.0000000000000000
 
  0.00000000E+00  0.00000000E+00  0.00000000E+00
  0.00000000E+00  0.00000000E+00  0.00000000E+00
  0.00000000E+00  0.00000000E+00  0.00000000E+00
  0.00000000E+00  0.00000000E+00  0.00000000E+00
  0.00000000E+00  0.00000000E+00  0.00000000E+00
  0.00000000E+00  0.00000000E+00  0.00000000E+00
  0.00000000E+00  0.00000000E+00  0.00000000E+00
  0.00000000E+00  0.00000000E+00  0.00000000E+00
  0.00000000E+00  0.00000000E+00  0.00000000E+00
  0.00000000E+00  0.00000000E+00  0.00000000E+00
  0.00000000E+00  0.00000000E+00  0.00000000E+00
  0.00000000E+00  0.00000000E+00  0.00000000E+00
  0.00000000E+00  0.00000000E+00  0.00000000E+00
  0.00000000E+00  0.00000000E+00  0.00000000E+00
  0.00000000E+00  0.00000000E+00  0.00000000E+00
  0.00000000E+00  0.00000000E+00  0.00000000E+00
  0.00000000E+00  0.00000000E+00  0.00000000E+00
  0.00000000E+00  0.00000000E+00  0.00000000E+00
  0.00000000E+00  0.00000000E+00  0.00000000E+00
  0.00000000E+00  0.00000000E+00  0.00000000E+00
  0.00000000E+00  0.00000000E+00  0.00000000E+00
  0.00000000E+00  0.00000000E+00  0.00000000E+00
  0.00000000E+00  0.00000000E+00  0.00000000E+00
  0.00000000E+00  0.00000000E+00  0.00000000E+00
  0.00000000E+00  0.00000000E+00  0.00000000E+00
  0.00000000E+00  0.00000000E+00  0.00000000E+00
  0.00000000E+00  0.00000000E+00  0.00000000E+00
  0.00000000E+00  0.00000000E+00  0.00000000E+00
  0.00000000E+00  0.00000000E+00  0.00000000E+00
  0.00000000E+00  0.00000000E+00  0.00000000E+00
  0.00000000E+00  0.00000000E+00  0.00000000E+00
  0.00000000E+00  0.00000000E+00  0.00000000E+00
  0.00000000E+00  0.00000000E+00  0.00000000E+00
  0.00000000E+00  0.00000000E+00  0.00000000E+00
  0.00000000E+00  0.00000000E+00  0.00000000E+00
  0.00000000E+00  0.00000000E+00  0.00000000E+00
  0.00000000E+00  0.00000000E+00  0.00000000E+00
  0.00000000E+00  0.00000000E+00  0.00000000E+00
  0.00000000E+00  0.00000000E+00  0.00000000E+00
  0.00000000E+00  0.00000000E+00  0.00000000E+00
  0.00000000E+00  0.00000000E+00  0.00000000E+00
  0.00000000E+00  0.00000000E+00  0.00000000E+00
  0.00000000E+00  0.00000000E+00  0.00000000E+00
  0.00000000E+00  0.00000000E+00  0.00000000E+00
  0.00000000E+00  0.00000000E+00  0.00000000E+00
  0.00000000E+00  0.00000000E+00  0.00000000E+00
  0.00000000E+00  0.00000000E+00  0.00000000E+00
  0.00000000E+00  0.00000000E+00  0.00000000E+00
  0.00000000E+00  0.00000000E+00  0.00000000E+00
  0.00000000E+00  0.00000000E+00  0.00000000E+00
  0.00000000E+00  0.00000000E+00  0.00000000E+00
  0.00000000E+00  0.00000000E+00  0.00000000E+00
  0.00000000E+00  0.00000000E+00  0.00000000E+00
  0.00000000E+00  0.00000000E+00  0.00000000E+00
  0.00000000E+00  0.00000000E+00  0.00000000E+00
  0.00000000E+00  0.00000000E+00  0.00000000E+00
  0.00000000E+00  0.00000000E+00  0.00000000E+00
  0.00000000E+00  0.00000000E+00  0.00000000E+00
  0.00000000E+00  0.00000000E+00  0.00000000E+00
  0.00000000E+00  0.00000000E+00  0.00000000E+00
  0.00000000E+00  0.00000000E+00  0.00000000E+00
  0.00000000E+00  0.00000000E+00  0.00000000E+00
  0.00000000E+00  0.00000000E+00  0.00000000E+00
  0.00000000E+00  0.00000000E+00  0.00000000E+00
  0.00000000E+00  0.00000000E+00  0.00000000E+00
  0.00000000E+00  0.00000000E+00  0.00000000E+00
  0.00000000E+00  0.00000000E+00  0.00000000E+00
  0.00000000E+00  0.00000000E+00  0.00000000E+00
  0.00000000E+00  0.00000000E+00  0.00000000E+00
  0.00000000E+00  0.00000000E+00  0.00000000E+00
  0.00000000E+00  0.00000000E+00  0.00000000E+00
  0.00000000E+00  0.00000000E+00  0.00000000E+00
  0.00000000E+00  0.00000000E+00  0.00000000E+00
  0.00000000E+00  0.00000000E+00  0.00000000E+00
  0.00000000E+00  0.00000000E+00  0.00000000E+00
