title                                   
   1.00000000000000     
     0.0000000000000000    0.0000000000000000   -3.9851494797727915
     0.0000000000000000    3.9851494797727915    0.0000000000000000
    11.9543286966869431    0.0000000000000000    0.0000000000000000
   Nb   O    Sr   Ti
     1     9     3     2
Direct
  0.5000000000000000  0.5000000000000000  0.1666666666666643
  0.5000000000000000  0.5000000000000000  0.3341282689618126
  0.5000000000000000  0.0000000000000000  0.1666666666666643
  0.0000000000000000  0.5000000000000000  0.1666666666666643
  0.5000000000000000  0.5000000000000000  0.6666666666666643
  0.5000000000000000  0.0000000000000000  0.5003306127541549
  0.0000000000000000  0.5000000000000000  0.5003306127541549
  0.5000000000000000  0.5000000000000000  0.9992050643715231
  0.5000000000000000  0.0000000000000000  0.8330027205791808
  0.0000000000000000  0.5000000000000000  0.8330027205791808
  0.0000000000000000  0.0000000000000000  0.3473494572487965
  0.0000000000000000  0.0000000000000000  0.6666666666666643
  0.0000000000000000  0.0000000000000000  0.9859838760845392
  0.5000000000000000  0.5000000000000000  0.5037909683060704
  0.5000000000000000  0.5000000000000000  0.8295423650272653
 
  0.00000000E+00  0.00000000E+00  0.00000000E+00
  0.00000000E+00  0.00000000E+00  0.00000000E+00
  0.00000000E+00  0.00000000E+00  0.00000000E+00
  0.00000000E+00  0.00000000E+00  0.00000000E+00
  0.00000000E+00  0.00000000E+00  0.00000000E+00
  0.00000000E+00  0.00000000E+00  0.00000000E+00
  0.00000000E+00  0.00000000E+00  0.00000000E+00
  0.00000000E+00  0.00000000E+00  0.00000000E+00
  0.00000000E+00  0.00000000E+00  0.00000000E+00
  0.00000000E+00  0.00000000E+00  0.00000000E+00
  0.00000000E+00  0.00000000E+00  0.00000000E+00
  0.00000000E+00  0.00000000E+00  0.00000000E+00
  0.00000000E+00  0.00000000E+00  0.00000000E+00
  0.00000000E+00  0.00000000E+00  0.00000000E+00
  0.00000000E+00  0.00000000E+00  0.00000000E+00
