title                                   
   1.00000000000000     
     3.9983367681980395   -0.0000000000000000   -3.9983367681980395
     3.9983367681980395   -3.9983367681980395    0.0000000000000000
    -0.0000000000000000   -3.9983367681980395   -3.9983367681980395
   Nb   O    Sr   Ti
     1     6     2     1
Direct
  0.7500000000000000  0.7500000000000000  0.7500000000000000
  0.0015980884714695  0.0015980884714695  0.4984019115285307
  0.0015980884714695  0.4984019115285307  0.4984019115285307
  0.4984019115285307  0.0015980884714695  0.4984019115285307
  0.4984019115285307  0.4984019115285307  0.0015980884714695
  0.4984019115285307  0.0015980884714695  0.0015980884714695
  0.0015980884714695  0.4984019115285307  0.0015980884714695
  0.0000000000000000  0.0000000000000000 -0.0000000000000000
  0.5000000000000000  0.5000000000000000  0.5000000000000000
  0.2500000000000000  0.2500000000000000  0.2500000000000000
 
  0.00000000E+00  0.00000000E+00  0.00000000E+00
  0.00000000E+00  0.00000000E+00  0.00000000E+00
  0.00000000E+00  0.00000000E+00  0.00000000E+00
  0.00000000E+00  0.00000000E+00  0.00000000E+00
  0.00000000E+00  0.00000000E+00  0.00000000E+00
  0.00000000E+00  0.00000000E+00  0.00000000E+00
  0.00000000E+00  0.00000000E+00  0.00000000E+00
  0.00000000E+00  0.00000000E+00  0.00000000E+00
  0.00000000E+00  0.00000000E+00  0.00000000E+00
  0.00000000E+00  0.00000000E+00  0.00000000E+00
