title                                   
   1.00000000000000     
    19.8357599012283998   -0.0015305049904674    0.0000000000000000
    -0.0009163776444196   11.8889001254782070    0.0000000000000000
     0.0000000000000000    0.0000000000000000    3.9705553836349856
   Nb   O    Sr   Ti
     3    45    15    12
Direct
  0.3004811830757994  0.1672161480168695  0.5000000001268887
  0.6999999880066596  0.5000000000000000  0.5000000001268887
  0.0995188299377114  0.8327838229684447  0.5000000001268887
 -0.0002044428013643  0.1662395009622942  0.5000000001268887
  0.1003264793004199  0.0003278726887695  0.5000000001268887
  0.0996704127289859  0.1667472101745659  0.0000000000000000
  0.1997487275731983  0.1661154380977165  0.5000000001268887
  0.2996735337130907 -0.0003278726887695  0.5000000001268887
  0.2998268904180698  0.1664257686784997  0.0000000000000000
  0.4002643839864900  0.1664899496365705  0.5000000001268887
  0.4997450516126722 -0.0001239320958517  0.5000000001268887
  0.5003629065632323  0.1666501676605180  0.0000000000000000
  0.6002593590917884  0.1669122207443842  0.5000000001268887
  0.6999999880066596  0.0000000000000000  0.5000000001268887
  0.7002543282777459  0.1666032155672472  0.0000000000000000
  0.8001034663987050  0.1669913992121126  0.5000000001268887
  0.9002549244006472  0.0001239320958517  0.5000000001268887
  0.8998871629617001  0.1667388108996748  0.0000000000000000
  0.0004100660503202  0.5003386609095283  0.5000000001268887
  0.1001739227342664  0.3333301338000206  0.5000000001268887
  0.1002993771563406  0.4998209875031829  0.0000000000000000
  0.2000000030046820  0.5000000000000000  0.5000000001268887
  0.3000477192610078  0.3337093290217762  0.5000000001268887
  0.2997006358571700  0.5001790124968172  0.0000000000000000
  0.3995899399590367  0.4996613390904718  0.5000000001268887
  0.4999247125235370  0.3333027498707573  0.5000000001268887
  0.4994639650876819  0.5000838376489539  0.0000000000000000
  0.5995423004931132  0.5000811439923181  0.5000000001268887
  0.6999876368069581  0.3330630386407579  0.5000000001268887
  0.6999999880066596  0.5000000000000000  0.0000000000000000
  0.8004577355122885  0.4999188560076818  0.5000000001268887
  0.8998878162606532  0.3331938680341294  0.5000000001268887
  0.9005360109256375  0.4999161623510461  0.0000000000000000
 -0.0002643779771331  0.8335100213487437  0.5000000001268887
  0.0999522937525029  0.6662906999929095  0.5000000001268887
  0.1001731225954407  0.8335742023068144  0.0000000000000000
  0.2002512784361658  0.8338845328875979  0.5000000001268887
  0.2998260902792442  0.6666698952146654  0.5000000001268887
  0.3003296002845247  0.8332527608107484  0.0000000000000000
  0.4002044488107212  0.8337604700230201  0.5000000001268887
  0.5001121597526661  0.6668061609805562  0.5000000001268887
  0.5001128130516191  0.8332611600856394  0.0000000000000000
  0.5998965696066967  0.8330085717732018  0.5000000001268887
  0.7000123392063612  0.6669369903739277  0.5000000001268887
  0.6997456477355734  0.8333967554180671  0.0000000000000000
  0.7997406769136133  0.8330877502409300  0.5000000001268887
  0.9000752634897824  0.6666972791439285  0.5000000001268887
  0.8996370694500869  0.8333498033247964  0.0000000000000000
 -0.0045787707377298  0.0059141917761187  0.0000000000000000
  0.2000000030046820  0.0000000000000000  0.0000000000000000
  0.4045787767470866 -0.0059141917761187  0.0000000000000000
  0.6005305936884562 -0.0002099061524536  0.0000000000000000
  0.7994694423169455  0.0002099061524536  0.0000000000000000
 -0.0009290279839666  0.3334615897791043  0.0000000000000000
  0.1964985141542047  0.3396191275515215  0.0000000000000000
  0.4040414807460602  0.3394874366836417  0.0000000000000000
  0.5970805234831259  0.3273520544770613  0.0000000000000000
  0.8032186007610361  0.3272354778583683  0.0000000000000000
 -0.0040414747367032  0.6605125923310438  0.0000000000000000
  0.2035014918551593  0.6603809014631642  0.0000000000000000
  0.4009290339933235  0.6665384392355813  0.0000000000000000
  0.5967814352443656  0.6727645511563176  0.0000000000000000
  0.8029195125222758  0.6726479745376241  0.0000000000000000
  0.0979840937775914  0.1690511576723762  0.5000000001268887
  0.5016052965475220  0.1659221927758294  0.5000000001268887
  0.7001954811607659  0.1642757163703817  0.5000000001268887
  0.8992483403462840  0.1666663800891698  0.5000000001268887
  0.0994756629856181  0.4982762113000938  0.5000000001268887
  0.3005243500278926  0.5017237886999065  0.5000000001268887
  0.4993150313055181  0.5007510666681826  0.5000000001268887
  0.9006849447078010  0.4992489333318176  0.5000000001268887
  0.3020159192359192  0.8309488133129379  0.5000000001268887
  0.5007516356670354  0.8333335908961443  0.5000000001268887
  0.6998044948525534  0.8357242546149327  0.5000000001268887
  0.8983946794657973  0.8340777782094853  0.5000000001268887
 
  0.00000000E+00  0.00000000E+00  0.00000000E+00
  0.00000000E+00  0.00000000E+00  0.00000000E+00
  0.00000000E+00  0.00000000E+00  0.00000000E+00
  0.00000000E+00  0.00000000E+00  0.00000000E+00
  0.00000000E+00  0.00000000E+00  0.00000000E+00
  0.00000000E+00  0.00000000E+00  0.00000000E+00
  0.00000000E+00  0.00000000E+00  0.00000000E+00
  0.00000000E+00  0.00000000E+00  0.00000000E+00
  0.00000000E+00  0.00000000E+00  0.00000000E+00
  0.00000000E+00  0.00000000E+00  0.00000000E+00
  0.00000000E+00  0.00000000E+00  0.00000000E+00
  0.00000000E+00  0.00000000E+00  0.00000000E+00
  0.00000000E+00  0.00000000E+00  0.00000000E+00
  0.00000000E+00  0.00000000E+00  0.00000000E+00
  0.00000000E+00  0.00000000E+00  0.00000000E+00
  0.00000000E+00  0.00000000E+00  0.00000000E+00
  0.00000000E+00  0.00000000E+00  0.00000000E+00
  0.00000000E+00  0.00000000E+00  0.00000000E+00
  0.00000000E+00  0.00000000E+00  0.00000000E+00
  0.00000000E+00  0.00000000E+00  0.00000000E+00
  0.00000000E+00  0.00000000E+00  0.00000000E+00
  0.00000000E+00  0.00000000E+00  0.00000000E+00
  0.00000000E+00  0.00000000E+00  0.00000000E+00
  0.00000000E+00  0.00000000E+00  0.00000000E+00
  0.00000000E+00  0.00000000E+00  0.00000000E+00
  0.00000000E+00  0.00000000E+00  0.00000000E+00
  0.00000000E+00  0.00000000E+00  0.00000000E+00
  0.00000000E+00  0.00000000E+00  0.00000000E+00
  0.00000000E+00  0.00000000E+00  0.00000000E+00
  0.00000000E+00  0.00000000E+00  0.00000000E+00
  0.00000000E+00  0.00000000E+00  0.00000000E+00
  0.00000000E+00  0.00000000E+00  0.00000000E+00
  0.00000000E+00  0.00000000E+00  0.00000000E+00
  0.00000000E+00  0.00000000E+00  0.00000000E+00
  0.00000000E+00  0.00000000E+00  0.00000000E+00
  0.00000000E+00  0.00000000E+00  0.00000000E+00
  0.00000000E+00  0.00000000E+00  0.00000000E+00
  0.00000000E+00  0.00000000E+00  0.00000000E+00
  0.00000000E+00  0.00000000E+00  0.00000000E+00
  0.00000000E+00  0.00000000E+00  0.00000000E+00
  0.00000000E+00  0.00000000E+00  0.00000000E+00
  0.00000000E+00  0.00000000E+00  0.00000000E+00
  0.00000000E+00  0.00000000E+00  0.00000000E+00
  0.00000000E+00  0.00000000E+00  0.00000000E+00
  0.00000000E+00  0.00000000E+00  0.00000000E+00
  0.00000000E+00  0.00000000E+00  0.00000000E+00
  0.00000000E+00  0.00000000E+00  0.00000000E+00
  0.00000000E+00  0.00000000E+00  0.00000000E+00
  0.00000000E+00  0.00000000E+00  0.00000000E+00
  0.00000000E+00  0.00000000E+00  0.00000000E+00
  0.00000000E+00  0.00000000E+00  0.00000000E+00
  0.00000000E+00  0.00000000E+00  0.00000000E+00
  0.00000000E+00  0.00000000E+00  0.00000000E+00
  0.00000000E+00  0.00000000E+00  0.00000000E+00
  0.00000000E+00  0.00000000E+00  0.00000000E+00
  0.00000000E+00  0.00000000E+00  0.00000000E+00
  0.00000000E+00  0.00000000E+00  0.00000000E+00
  0.00000000E+00  0.00000000E+00  0.00000000E+00
  0.00000000E+00  0.00000000E+00  0.00000000E+00
  0.00000000E+00  0.00000000E+00  0.00000000E+00
  0.00000000E+00  0.00000000E+00  0.00000000E+00
  0.00000000E+00  0.00000000E+00  0.00000000E+00
  0.00000000E+00  0.00000000E+00  0.00000000E+00
  0.00000000E+00  0.00000000E+00  0.00000000E+00
  0.00000000E+00  0.00000000E+00  0.00000000E+00
  0.00000000E+00  0.00000000E+00  0.00000000E+00
  0.00000000E+00  0.00000000E+00  0.00000000E+00
  0.00000000E+00  0.00000000E+00  0.00000000E+00
  0.00000000E+00  0.00000000E+00  0.00000000E+00
  0.00000000E+00  0.00000000E+00  0.00000000E+00
  0.00000000E+00  0.00000000E+00  0.00000000E+00
  0.00000000E+00  0.00000000E+00  0.00000000E+00
  0.00000000E+00  0.00000000E+00  0.00000000E+00
  0.00000000E+00  0.00000000E+00  0.00000000E+00
  0.00000000E+00  0.00000000E+00  0.00000000E+00
