title
1.
3.940523000 -7.881046000 3.940523000
7.881046000 -3.940523000 3.940523000
3.940523000 -3.940523000 7.881046000
1 12 4 3
Cartesian
5.910784500 -5.910784500 5.910784500    Nb_sv
7.881046000 -5.910784500 5.910784500    O
9.851307500 -11.821569000 9.851307500    O
5.910784500 -5.910784500 7.881046000    O
11.821569000 -9.851307500 9.851307500    O
9.851307500 -7.881046000 9.851307500    O
9.851307500 -9.851307500 11.821569000    O
7.881046000 -9.851307500 9.851307500    O
13.791830500 -11.821569000 13.791830500    O
9.851307500 -9.851307500 7.881046000    O
11.821569000 -13.791830500 13.791830500    O
5.910784500 -7.881046000 5.910784500    O
13.791830500 -13.791830500 11.821569000    O
11.821569000 -11.821569000 11.821569000    Sr_sv
15.762092000 -15.762092000 15.762092000    Sr_sv
3.940523000 -3.940523000 3.940523000    Sr_sv
7.881046000 -7.881046000 7.881046000    Sr_sv
9.851307500 -9.851307500 9.851307500    Ti_sv
13.791830500 -13.791830500 13.791830500    Ti_sv
1.970261500 -1.970261500 1.970261500    Ti_sv
