title                                   
   1.00000000000000     
     3.9715135081732904    3.9715135081732900   -3.9715135081732904
     3.9715135081732904   -3.9715135081732900    3.9715135081732904
    -3.9715135081732904   -3.9715135081732900   -3.9715135081732904
   Nb   O    Sr   Ti
     1    12     4     3
Direct
  0.5000000000000000  0.0000000000000000  0.0000000000000000
  0.7505971662739128  0.2505971662739128  0.0000000000000000
  0.5000000000000000  0.7494028337260872  0.7494028337260872
  0.2494028337260872  0.0000000000000000  0.7494028337260872
  0.2494028337260872  0.7494028337260872  0.0000000000000000
  0.0000000000000000  0.2500000000000000  0.7500000000000000
  0.7500000000000000  0.5000000000000000  0.7500000000000000
  0.2500000000000000  0.2500000000000000  0.5000000000000000
  0.0000000000000000  0.7500000000000000  0.2500000000000000
  0.7505971662739128  0.0000000000000000  0.2505971662739128
  0.7500000000000000  0.7500000000000000  0.5000000000000000
  0.5000000000000000  0.2505971662739128  0.2505971662739128
  0.2500000000000000  0.5000000000000000  0.2500000000000000
  0.5000000000000000  0.0000000000000000  0.5000000000000000
  0.0000000000000000  0.5000000000000000  0.5000000000000000
  0.0000000000000000  0.0000000000000000  0.0000000000000000
  0.5000000000000000  0.5000000000000000  0.0000000000000000
  0.0000000000000000  0.5000000000000000  0.0000000000000000
  0.0000000000000000  0.0000000000000000  0.5000000000000000
  0.5000000000000000  0.5000000000000000  0.5000000000000000
 
  0.00000000E+00  0.00000000E+00  0.00000000E+00
  0.00000000E+00  0.00000000E+00  0.00000000E+00
  0.00000000E+00  0.00000000E+00  0.00000000E+00
  0.00000000E+00  0.00000000E+00  0.00000000E+00
  0.00000000E+00  0.00000000E+00  0.00000000E+00
  0.00000000E+00  0.00000000E+00  0.00000000E+00
  0.00000000E+00  0.00000000E+00  0.00000000E+00
  0.00000000E+00  0.00000000E+00  0.00000000E+00
  0.00000000E+00  0.00000000E+00  0.00000000E+00
  0.00000000E+00  0.00000000E+00  0.00000000E+00
  0.00000000E+00  0.00000000E+00  0.00000000E+00
  0.00000000E+00  0.00000000E+00  0.00000000E+00
  0.00000000E+00  0.00000000E+00  0.00000000E+00
  0.00000000E+00  0.00000000E+00  0.00000000E+00
  0.00000000E+00  0.00000000E+00  0.00000000E+00
  0.00000000E+00  0.00000000E+00  0.00000000E+00
  0.00000000E+00  0.00000000E+00  0.00000000E+00
  0.00000000E+00  0.00000000E+00  0.00000000E+00
  0.00000000E+00  0.00000000E+00  0.00000000E+00
  0.00000000E+00  0.00000000E+00  0.00000000E+00
