title                                   
   1.00000000000000     
     3.9752420720115995   -7.9459742187646238    3.9752420720115995
     7.9459742187646238   -3.9752420720115995    3.9752420720115995
     3.9752420720115995   -3.9752420720115995    7.9459742187646247
   Nb   O    Sr   Ti
     1    12     4     3
Direct
  0.3750000000000000  0.3750000000000000  0.3750000000000000
  0.2494845275825526  0.7518655021041241  0.2494845275825526
  0.9981344978958759  0.5005154724174474  0.5005154724174474
  0.2494845275825526  0.2494845275825526  0.7518655021041241
  0.5005154724174474  0.9981344978958759  0.5005154724174474
  0.2499258797491635  0.7499528617354301  0.7499528617354301
  0.5005154724174474  0.5005154724174474  0.9981344978958759
  0.7499528617354301  0.2499258797491635  0.7499528617354301
  0.5000741202508365  0.0000471382645699  0.0000471382645699
  0.7499528617354301  0.7499528617354301  0.2499258797491635
  0.0000471382645699  0.5000741202508365  0.0000471382645699
  0.7518655021041241  0.2494845275825526  0.2494845275825526
  0.0000471382645699  0.0000471382645699  0.5000741202508365
  0.7521588831484536  0.7521588831484536  0.7521588831484536
  0.9978411168515464  0.9978411168515464  0.9978411168515464
  0.2483038298410420  0.2483038298410420  0.2483038298410420
  0.5016961701589580  0.5016961701589580  0.5016961701589580
  0.6228699415067780  0.6228699415067780  0.6228699415067780
  0.8750000000000000  0.8750000000000000  0.8750000000000000
  0.1271300584932220  0.1271300584932220  0.1271300584932220
 
  0.00000000E+00  0.00000000E+00  0.00000000E+00
  0.00000000E+00  0.00000000E+00  0.00000000E+00
  0.00000000E+00  0.00000000E+00  0.00000000E+00
  0.00000000E+00  0.00000000E+00  0.00000000E+00
  0.00000000E+00  0.00000000E+00  0.00000000E+00
  0.00000000E+00  0.00000000E+00  0.00000000E+00
  0.00000000E+00  0.00000000E+00  0.00000000E+00
  0.00000000E+00  0.00000000E+00  0.00000000E+00
  0.00000000E+00  0.00000000E+00  0.00000000E+00
  0.00000000E+00  0.00000000E+00  0.00000000E+00
  0.00000000E+00  0.00000000E+00  0.00000000E+00
  0.00000000E+00  0.00000000E+00  0.00000000E+00
  0.00000000E+00  0.00000000E+00  0.00000000E+00
  0.00000000E+00  0.00000000E+00  0.00000000E+00
  0.00000000E+00  0.00000000E+00  0.00000000E+00
  0.00000000E+00  0.00000000E+00  0.00000000E+00
  0.00000000E+00  0.00000000E+00  0.00000000E+00
  0.00000000E+00  0.00000000E+00  0.00000000E+00
  0.00000000E+00  0.00000000E+00  0.00000000E+00
  0.00000000E+00  0.00000000E+00  0.00000000E+00
