title                                   
   1.00000000000000     
     3.9752420720115995   -7.9459742187646238    3.9752420720115995
     7.9459742187646238   -3.9752420720115995    3.9752420720115995
     3.9752420720115995   -3.9752420720115995    7.9459742187646247
   Nb   O    Sr   Ti
     1    12     4     3
Direct
  0.3750000000000000  0.3750000000000000  0.3750000000000000
  0.2494845275825509  0.7518655021041224  0.2494845275825509
 -0.0018655021041224  0.5005154724174493  0.5005154724174493
  0.2494845275825509  0.2494845275825509  0.7518655021041224
  0.5005154724174493 -0.0018655021041224  0.5005154724174493
  0.2499258797491604  0.7499528617354334  0.7499528617354334
  0.5005154724174493  0.5005154724174493 -0.0018655021041224
  0.7499528617354334  0.2499258797491604  0.7499528617354334
  0.5000741202508395  0.0000471382645665  0.0000471382645665
  0.7499528617354334  0.7499528617354334  0.2499258797491604
  0.0000471382645665  0.5000741202508395  0.0000471382645665
  0.7518655021041224  0.2494845275825509  0.2494845275825509
  0.0000471382645665  0.0000471382645665  0.5000741202508395
  0.7521588831484503  0.7521588831484503  0.7521588831484503
 -0.0021588831484503 -0.0021588831484503 -0.0021588831484503
  0.2483038298410432  0.2483038298410432  0.2483038298410432
  0.5016961701589570  0.5016961701589570  0.5016961701589570
  0.6228699415067803  0.6228699415067803  0.6228699415067803
  0.8750000000000000  0.8750000000000000  0.8750000000000000
  0.1271300584932197  0.1271300584932197  0.1271300584932197
 
  0.00000000E+00  0.00000000E+00  0.00000000E+00
  0.00000000E+00  0.00000000E+00  0.00000000E+00
  0.00000000E+00  0.00000000E+00  0.00000000E+00
  0.00000000E+00  0.00000000E+00  0.00000000E+00
  0.00000000E+00  0.00000000E+00  0.00000000E+00
  0.00000000E+00  0.00000000E+00  0.00000000E+00
  0.00000000E+00  0.00000000E+00  0.00000000E+00
  0.00000000E+00  0.00000000E+00  0.00000000E+00
  0.00000000E+00  0.00000000E+00  0.00000000E+00
  0.00000000E+00  0.00000000E+00  0.00000000E+00
  0.00000000E+00  0.00000000E+00  0.00000000E+00
  0.00000000E+00  0.00000000E+00  0.00000000E+00
  0.00000000E+00  0.00000000E+00  0.00000000E+00
  0.00000000E+00  0.00000000E+00  0.00000000E+00
  0.00000000E+00  0.00000000E+00  0.00000000E+00
  0.00000000E+00  0.00000000E+00  0.00000000E+00
  0.00000000E+00  0.00000000E+00  0.00000000E+00
  0.00000000E+00  0.00000000E+00  0.00000000E+00
  0.00000000E+00  0.00000000E+00  0.00000000E+00
  0.00000000E+00  0.00000000E+00  0.00000000E+00
