title                                   
   1.00000000000000     
     0.0000000000000000    0.0000000000000000   -4.0233322272816396
     0.0000000000000000    4.0233322272816396    0.0000000000000000
    12.0613216821098028   -0.0000000000000000    0.0000000000000000
   Nb   O    Sr   Ti
     2     9     3     1
Direct
  0.5000000000000000  0.5000000000000000  0.1642302740200864
  0.5000000000000000  0.5000000000000000  0.5024363926465780
  0.5000000000000000  0.5000000000000000  0.3333333333333357
  0.5000000000000000  0.0000000000000000  0.1668309895993253
  0.0000000000000000  0.5000000000000000  0.1668309895993253
  0.5000000000000000  0.5000000000000000  0.6684296942379615
  0.5000000000000000 -0.0000000000000000  0.4998356770673391
  0.0000000000000000  0.5000000000000000  0.4998356770673391
  0.5000000000000000  0.5000000000000000 -0.0017630275712973
  0.5000000000000000  0.0000000000000000  0.8333333333333357
  0.0000000000000000  0.5000000000000000  0.8333333333333357
  0.0000000000000000  0.0000000000000000  0.3333333333333357
 -0.0000000000000000  0.0000000000000000  0.6796935088503356
  0.0000000000000000 -0.0000000000000000 -0.0130268421836712
  0.5000000000000000  0.5000000000000000  0.8333333333333357
 
  0.00000000E+00  0.00000000E+00  0.00000000E+00
  0.00000000E+00  0.00000000E+00  0.00000000E+00
  0.00000000E+00  0.00000000E+00  0.00000000E+00
  0.00000000E+00  0.00000000E+00  0.00000000E+00
  0.00000000E+00  0.00000000E+00  0.00000000E+00
  0.00000000E+00  0.00000000E+00  0.00000000E+00
  0.00000000E+00  0.00000000E+00  0.00000000E+00
  0.00000000E+00  0.00000000E+00  0.00000000E+00
  0.00000000E+00  0.00000000E+00  0.00000000E+00
  0.00000000E+00  0.00000000E+00  0.00000000E+00
  0.00000000E+00  0.00000000E+00  0.00000000E+00
  0.00000000E+00  0.00000000E+00  0.00000000E+00
  0.00000000E+00  0.00000000E+00  0.00000000E+00
  0.00000000E+00  0.00000000E+00  0.00000000E+00
  0.00000000E+00  0.00000000E+00  0.00000000E+00
