title                                   
   1.00000000000000     
    19.9105858045119923    0.0021333751936182    0.0000000000000000
     0.0012788146566753   11.9406359011002401    0.0000000000000000
     0.0000000000000000    0.0000000000000000    3.9889200911354603
   Nb   O    Sr   Ti
     5    45    15    10
Direct
  0.4997571888429991  0.1682009286034832  0.5000000001268887
  0.1017088034844081  0.4992843092990014  0.5000000001268887
  0.8988881626415572  0.4983052705288449  0.5000000001268887
  0.4995779953302046  0.8318566091017446  0.5000000001268887
  0.8998882952045778  0.8354058760490743  0.5000000001268887
  0.0002655300859465  0.1665124306873625  0.5000000001268887
  0.1004654742713433 -0.0000449209841721  0.5000000001268887
  0.0997164679559426  0.1663113977013531  0.0000000000000000
  0.1997697699413929  0.1673416642278826  0.5000000001268887
  0.2999917214023252  0.0000212783548205  0.5000000001268887
  0.2994927602472315  0.1664906588919975  0.0000000000000000
  0.3994286016120259  0.1658955906090756  0.5000000001268887
  0.4999252865237710  0.0000162998941884  0.5000000001268887
  0.4999914000989236  0.1674747786554843  0.0000000000000000
  0.6003580324165227  0.1661114504164397  0.5000000001268887
  0.6999532446574585  0.0000917650553274  0.5000000001268887
  0.7004600098752396  0.1664565618210093  0.0000000000000000
  0.8001474709276344  0.1669815611882828  0.5000000001268887
  0.8996806183744406  0.0011477923802401  0.5000000001268887
  0.9003458534115442  0.1668633146705360  0.0000000000000000
  0.0000986082154262  0.5006007835946089  0.5000000001268887
  0.1000315250363262  0.3329949510235793  0.5000000001268887
  0.1007029241486593  0.5005194572516379  0.0000000000000000
  0.2012571529718122  0.4999122552959856  0.5000000001268887
  0.3000435775328081  0.3332889321435939  0.5000000001268887
  0.3009979955579148  0.5000037309281636  0.0000000000000000
  0.4002371457135676  0.4999578616377413  0.5000000001268887
  0.4998362388400211  0.3343140138058597  0.5000000001268887
  0.5000107381751163  0.5000180605983114  0.0000000000000000
  0.5995888904649022  0.4997232222525279  0.5000000001268887
  0.6997697648051414  0.3333591021349646  0.5000000001268887
  0.6989631579660051  0.5000976406873110  0.0000000000000000
  0.7987760255432971  0.5005121180615888  0.5000000001268887
  0.9003088323542950  0.3323839376751940  0.5000000001268887
  0.8991257531713162  0.4990812224920332  0.0000000000000000
  0.0006369383740272  0.8327938763886522  0.5000000001268887
  0.0998726690196875  0.6670616461439357  0.5000000001268887
  0.1002193673901414  0.8334956094365621  0.0000000000000000
  0.2001303932395264  0.8328560411204481  0.5000000001268887
  0.3000674403181258  0.6667424325801693  0.5000000001268887
  0.2997218586714364  0.8335472673135055  0.0000000000000000
  0.3994198671547757  0.8341960779115613  0.5000000001268887
  0.4999185463842470  0.6656663604186930  0.5000000001268887
  0.4997316036705257  0.8325285664149248  0.0000000000000000
  0.6000087860662333  0.8342098831333135  0.5000000001268887
  0.6997176320210061  0.6665667341678840  0.5000000001268887
  0.6999758643363353  0.8335438068415713  0.0000000000000000
  0.7998601754590997  0.8323737245162068  0.5000000001268887
  0.9003648584272985  0.6664745678043891  0.5000000001268887
  0.9006120343594217  0.8339882987261552  0.0000000000000000
  0.0040406924479949  0.0058200399445005  0.0000000000000000
  0.2004468761992472  0.0004518200819662  0.0000000000000000
  0.3920124942979332  0.0001288921118605  0.0000000000000000
  0.6067964634851865  0.0002800251205821  0.0000000000000000
  0.7970556300401120  0.0063357596652543  0.0000000000000000
  0.0002414611528043  0.3202805164755611  0.0000000000000000
  0.2042385072196158  0.3273221552591932  0.0000000000000000
  0.3966618848171993  0.3392711223908726  0.0000000000000000
  0.6022829099736897  0.3393153665598799  0.0000000000000000
  0.7963910810589000  0.3274244466133631  0.0000000000000000
  0.0049792587721733  0.6739480062447145  0.0000000000000000
  0.2046243862286697  0.6722705195533187  0.0000000000000000
  0.3966432609440549  0.6605871270870234  0.0000000000000000
  0.6017352272135820  0.6602048918122512  0.0000000000000000
  0.7919381410629479  0.6661762458820162  0.0000000000000000
  0.1010657965558823  0.1645468236777280  0.5000000001268887
  0.2987860295909643  0.1667326102169888  0.5000000001268887
  0.7007231202798606  0.1674430517947711  0.5000000001268887
  0.8998386569368642  0.1657609827913674  0.5000000001268887
  0.3009130879340035  0.4998991062656408  0.5000000001268887
  0.4995768960258348  0.4998527420900294  0.5000000001268887
  0.6983749185985888  0.4990780663366681  0.5000000001268887
  0.1022157202707355  0.8365472397787431  0.5000000001268887
  0.2989468984685577  0.8333752508972695  0.5000000001268887
  0.6996516111486625  0.8334102466219583  0.5000000001268887
 
  0.00000000E+00  0.00000000E+00  0.00000000E+00
  0.00000000E+00  0.00000000E+00  0.00000000E+00
  0.00000000E+00  0.00000000E+00  0.00000000E+00
  0.00000000E+00  0.00000000E+00  0.00000000E+00
  0.00000000E+00  0.00000000E+00  0.00000000E+00
  0.00000000E+00  0.00000000E+00  0.00000000E+00
  0.00000000E+00  0.00000000E+00  0.00000000E+00
  0.00000000E+00  0.00000000E+00  0.00000000E+00
  0.00000000E+00  0.00000000E+00  0.00000000E+00
  0.00000000E+00  0.00000000E+00  0.00000000E+00
  0.00000000E+00  0.00000000E+00  0.00000000E+00
  0.00000000E+00  0.00000000E+00  0.00000000E+00
  0.00000000E+00  0.00000000E+00  0.00000000E+00
  0.00000000E+00  0.00000000E+00  0.00000000E+00
  0.00000000E+00  0.00000000E+00  0.00000000E+00
  0.00000000E+00  0.00000000E+00  0.00000000E+00
  0.00000000E+00  0.00000000E+00  0.00000000E+00
  0.00000000E+00  0.00000000E+00  0.00000000E+00
  0.00000000E+00  0.00000000E+00  0.00000000E+00
  0.00000000E+00  0.00000000E+00  0.00000000E+00
  0.00000000E+00  0.00000000E+00  0.00000000E+00
  0.00000000E+00  0.00000000E+00  0.00000000E+00
  0.00000000E+00  0.00000000E+00  0.00000000E+00
  0.00000000E+00  0.00000000E+00  0.00000000E+00
  0.00000000E+00  0.00000000E+00  0.00000000E+00
  0.00000000E+00  0.00000000E+00  0.00000000E+00
  0.00000000E+00  0.00000000E+00  0.00000000E+00
  0.00000000E+00  0.00000000E+00  0.00000000E+00
  0.00000000E+00  0.00000000E+00  0.00000000E+00
  0.00000000E+00  0.00000000E+00  0.00000000E+00
  0.00000000E+00  0.00000000E+00  0.00000000E+00
  0.00000000E+00  0.00000000E+00  0.00000000E+00
  0.00000000E+00  0.00000000E+00  0.00000000E+00
  0.00000000E+00  0.00000000E+00  0.00000000E+00
  0.00000000E+00  0.00000000E+00  0.00000000E+00
  0.00000000E+00  0.00000000E+00  0.00000000E+00
  0.00000000E+00  0.00000000E+00  0.00000000E+00
  0.00000000E+00  0.00000000E+00  0.00000000E+00
  0.00000000E+00  0.00000000E+00  0.00000000E+00
  0.00000000E+00  0.00000000E+00  0.00000000E+00
  0.00000000E+00  0.00000000E+00  0.00000000E+00
  0.00000000E+00  0.00000000E+00  0.00000000E+00
  0.00000000E+00  0.00000000E+00  0.00000000E+00
  0.00000000E+00  0.00000000E+00  0.00000000E+00
  0.00000000E+00  0.00000000E+00  0.00000000E+00
  0.00000000E+00  0.00000000E+00  0.00000000E+00
  0.00000000E+00  0.00000000E+00  0.00000000E+00
  0.00000000E+00  0.00000000E+00  0.00000000E+00
  0.00000000E+00  0.00000000E+00  0.00000000E+00
  0.00000000E+00  0.00000000E+00  0.00000000E+00
  0.00000000E+00  0.00000000E+00  0.00000000E+00
  0.00000000E+00  0.00000000E+00  0.00000000E+00
  0.00000000E+00  0.00000000E+00  0.00000000E+00
  0.00000000E+00  0.00000000E+00  0.00000000E+00
  0.00000000E+00  0.00000000E+00  0.00000000E+00
  0.00000000E+00  0.00000000E+00  0.00000000E+00
  0.00000000E+00  0.00000000E+00  0.00000000E+00
  0.00000000E+00  0.00000000E+00  0.00000000E+00
  0.00000000E+00  0.00000000E+00  0.00000000E+00
  0.00000000E+00  0.00000000E+00  0.00000000E+00
  0.00000000E+00  0.00000000E+00  0.00000000E+00
  0.00000000E+00  0.00000000E+00  0.00000000E+00
  0.00000000E+00  0.00000000E+00  0.00000000E+00
  0.00000000E+00  0.00000000E+00  0.00000000E+00
  0.00000000E+00  0.00000000E+00  0.00000000E+00
  0.00000000E+00  0.00000000E+00  0.00000000E+00
  0.00000000E+00  0.00000000E+00  0.00000000E+00
  0.00000000E+00  0.00000000E+00  0.00000000E+00
  0.00000000E+00  0.00000000E+00  0.00000000E+00
  0.00000000E+00  0.00000000E+00  0.00000000E+00
  0.00000000E+00  0.00000000E+00  0.00000000E+00
  0.00000000E+00  0.00000000E+00  0.00000000E+00
  0.00000000E+00  0.00000000E+00  0.00000000E+00
  0.00000000E+00  0.00000000E+00  0.00000000E+00
  0.00000000E+00  0.00000000E+00  0.00000000E+00
