title                                   
   1.00000000000000     
     0.0000000000000000   -3.9995246452461433   -3.9995246452461433
     0.0000000000000000    3.9995246452461433   -3.9995246452461433
     4.0087029606503837    0.0000000000000000    0.0000000000000000
   Nb   O    Sr   Ti
     1     6     2     1
Direct
  0.0000000000000000  0.5000000000000000  0.5000000000000000
  0.0000000000000000  0.5000000000000000  0.0000000000000000
  0.7493766909058976  0.7506233090941024  0.5000000000000000
  0.7493766909058976  0.2493766909058976  0.5000000000000000
  0.5000000000000000  0.0000000000000000  0.0000000000000000
  0.2506233090941024  0.2493766909058976  0.5000000000000000
  0.2506233090941024  0.7506233090941024  0.5000000000000000
  0.5000000000000000  0.5000000000000000  0.0000000000000000
  0.0000000000000000  0.0000000000000000  0.0000000000000000
  0.5000000000000000  0.0000000000000000  0.5000000000000000
 
  0.00000000E+00  0.00000000E+00  0.00000000E+00
  0.00000000E+00  0.00000000E+00  0.00000000E+00
  0.00000000E+00  0.00000000E+00  0.00000000E+00
  0.00000000E+00  0.00000000E+00  0.00000000E+00
  0.00000000E+00  0.00000000E+00  0.00000000E+00
  0.00000000E+00  0.00000000E+00  0.00000000E+00
  0.00000000E+00  0.00000000E+00  0.00000000E+00
  0.00000000E+00  0.00000000E+00  0.00000000E+00
  0.00000000E+00  0.00000000E+00  0.00000000E+00
  0.00000000E+00  0.00000000E+00  0.00000000E+00
