PREC = Accurate
EDIFF=1E-5
EDIFFG=-0.01
ENCUT=500
NPAR=4
ISMEAR=-5
IBRION=-1
ISIF=2
