title
1.
0.000000000 0.000000000 -3.940523000
0.000000000 3.940523000 0.000000000
7.881046000 0.000000000 0.000000000
1 6 2 1
Cartesian
1.970261500 1.970261500 -1.970261500    Nb_sv
3.940523000 1.970261500 -1.970261500    O
1.970261500 3.940523000 -1.970261500    O
1.970261500 1.970261500 -3.940523000    O
7.881046000 1.970261500 -1.970261500    O
5.910784500 3.940523000 -1.970261500    O
5.910784500 1.970261500 -3.940523000    O
3.940523000 3.940523000 -3.940523000    Sr_sv
7.881046000 3.940523000 -3.940523000    Sr_sv
5.910784500 1.970261500 -1.970261500    Ti_sv
