title                                   
   1.00000000000000     
    20.0156768520753765   -0.0000001661366582    0.0000000000000000
     0.0000000735559658   12.0314115198117300    0.0000000000000000
     0.0000000000000000    0.0000000000000000    4.0096409952678780
   Nb   O    Sr   Ti
     8    45    15     7
Direct
  0.0996027964506806  0.1666679578598634  0.5000000001268887
  0.4994608380158608  0.1666670631401016  0.5000000001268887
  0.0997731742059513  0.4999433479769580  0.5000000001268887
  0.4988061728969349  0.4996234076911608  0.5000000001268887
  0.7017251205700960  0.4989750648676853  0.5000000001268887
  0.0997734341583723  0.8333888963863921  0.5000000001268887
  0.4988061297172393  0.8337101577380701  0.5000000001268887
  0.7017256904449581  0.8343582582503939  0.5000000001268887
 -0.0006354352592299  0.1666672612718713  0.5000000001268887
  0.0999759266155785  0.0001326737876730  0.5000000001268887
  0.0997133912311616  0.1666660787761803  0.0000000000000000
  0.2000475416093811  0.1666672234883516  0.5000000001268887
  0.2995174385698851  0.0002230316877490  0.5000000001268887
  0.2997799652775235  0.1666663318397562  0.0000000000000000
  0.3994039010456055  0.1666668715152147  0.5000000001268887
  0.4998927782549105  0.0002395473133994  0.5000000001268887
  0.5007519664438953  0.1666660793394418  0.0000000000000000
  0.6007873566596826  0.1666660103486288  0.5000000001268887
  0.7001669403593654  0.0016627898036097  0.5000000001268887
  0.7003680444115934  0.1666661736679363  0.0000000000000000
  0.8004793309810764  0.1666671090685567  0.5000000001268887
  0.9003040233854498  0.0003791295437259  0.5000000001268887
  0.8998056579091791  0.1666655247420881  0.0000000000000000
 -0.0002145561884461  0.4994815065581304  0.5000000001268887
  0.0999761420575446  0.3332002832276514  0.5000000001268887
  0.1000038740231179  0.5000413733186588  0.0000000000000000
  0.1999907834102998  0.4998208607502187  0.5000000001268887
  0.2995176079648674  0.3331070778032277  0.5000000001268887
  0.2994312087714979  0.5000451191703188  0.0000000000000000
  0.3986926314183833  0.4997506321819934  0.5000000001268887
  0.4998929043811656  0.3330923436240508  0.5000000001268887
  0.4996574366742823  0.5006248362185873  0.0000000000000000
  0.6002034354895499  0.5001728470674029  0.5000000001268887
  0.7001660548424278  0.3316652077820109  0.5000000001268887
  0.7001763956327407  0.4991792453945166  0.0000000000000000
  0.8012345551764600  0.5000266696831211  0.5000000001268887
  0.9003040575039213  0.3329509084439827  0.5000000001268887
  0.9005624480227835  0.5002536438071974  0.0000000000000000
 -0.0002143295171428  0.8338511487276307  0.5000000001268887
  0.0998190549831318  0.6666672095165975  0.5000000001268887
  0.1000037772487574  0.8332926057069153  0.0000000000000000
  0.1999899792436508  0.8335119199166257  0.5000000001268887
  0.2994414285654523  0.6666701849540020  0.5000000001268887
  0.2994308833718817  0.8332887656766242  0.0000000000000000
  0.3986942101018130  0.8335824917726191  0.5000000001268887
  0.5001953786824600  0.6666685013185212  0.5000000001268887
  0.4996575484428962  0.8327085955670822  0.0000000000000000
  0.6002033181680811  0.8331612377321586  0.5000000001268887
  0.7001996214783293  0.6666691043808693  0.5000000001268887
  0.7001767748832871  0.8341544277865253  0.0000000000000000
  0.8012339393353910  0.8333066886159087  0.5000000001268887
  0.9003300409171052  0.6666698714581442  0.5000000001268887
  0.9005626674424698  0.8330802918391752  0.0000000000000000
 -0.0071634168051659  0.0001118785585200  0.0000000000000000
  0.2056234182857855  0.0001152928366953  0.0000000000000000
  0.3925229894523481 -0.0000714845579328  0.0000000000000000
  0.6049996555562783  0.0069982551369014  0.0000000000000000
  0.8042168397954015  0.0058473034912588  0.0000000000000000
 -0.0071644486478573  0.3332201863344280  0.0000000000000000
  0.2056240050091079  0.3332175073879486  0.0000000000000000
  0.3925223982428864  0.3334047364960371  0.0000000000000000
  0.6050000767529102  0.3263348629915703  0.0000000000000000
  0.8042170049359066  0.3274844095789502  0.0000000000000000
 -0.0064161864737839  0.6666672030139128  0.0000000000000000
  0.2056151249065541  0.6666676469598816  0.0000000000000000
  0.3922936261471252  0.6666665668677078  0.0000000000000000
  0.5999968471413605  0.6666667992952113  0.0000000000000000
  0.8083883989505047  0.6666667685916049  0.0000000000000000
  0.2994481155605127  0.1666670454579879  0.5000000001268887
  0.7025548157832288  0.1666694294133068  0.5000000001268887
  0.8993576965760555  0.1666666700480472  0.5000000001268887
  0.2995371631089525  0.5000617063269659  0.5000000001268887
  0.8999693320589854  0.4993235540128130  0.5000000001268887
  0.2995358826536400  0.8332717116769910  0.5000000001268887
  0.8999692679439993  0.8340102149024879  0.5000000001268887
 
  0.00000000E+00  0.00000000E+00  0.00000000E+00
  0.00000000E+00  0.00000000E+00  0.00000000E+00
  0.00000000E+00  0.00000000E+00  0.00000000E+00
  0.00000000E+00  0.00000000E+00  0.00000000E+00
  0.00000000E+00  0.00000000E+00  0.00000000E+00
  0.00000000E+00  0.00000000E+00  0.00000000E+00
  0.00000000E+00  0.00000000E+00  0.00000000E+00
  0.00000000E+00  0.00000000E+00  0.00000000E+00
  0.00000000E+00  0.00000000E+00  0.00000000E+00
  0.00000000E+00  0.00000000E+00  0.00000000E+00
  0.00000000E+00  0.00000000E+00  0.00000000E+00
  0.00000000E+00  0.00000000E+00  0.00000000E+00
  0.00000000E+00  0.00000000E+00  0.00000000E+00
  0.00000000E+00  0.00000000E+00  0.00000000E+00
  0.00000000E+00  0.00000000E+00  0.00000000E+00
  0.00000000E+00  0.00000000E+00  0.00000000E+00
  0.00000000E+00  0.00000000E+00  0.00000000E+00
  0.00000000E+00  0.00000000E+00  0.00000000E+00
  0.00000000E+00  0.00000000E+00  0.00000000E+00
  0.00000000E+00  0.00000000E+00  0.00000000E+00
  0.00000000E+00  0.00000000E+00  0.00000000E+00
  0.00000000E+00  0.00000000E+00  0.00000000E+00
  0.00000000E+00  0.00000000E+00  0.00000000E+00
  0.00000000E+00  0.00000000E+00  0.00000000E+00
  0.00000000E+00  0.00000000E+00  0.00000000E+00
  0.00000000E+00  0.00000000E+00  0.00000000E+00
  0.00000000E+00  0.00000000E+00  0.00000000E+00
  0.00000000E+00  0.00000000E+00  0.00000000E+00
  0.00000000E+00  0.00000000E+00  0.00000000E+00
  0.00000000E+00  0.00000000E+00  0.00000000E+00
  0.00000000E+00  0.00000000E+00  0.00000000E+00
  0.00000000E+00  0.00000000E+00  0.00000000E+00
  0.00000000E+00  0.00000000E+00  0.00000000E+00
  0.00000000E+00  0.00000000E+00  0.00000000E+00
  0.00000000E+00  0.00000000E+00  0.00000000E+00
  0.00000000E+00  0.00000000E+00  0.00000000E+00
  0.00000000E+00  0.00000000E+00  0.00000000E+00
  0.00000000E+00  0.00000000E+00  0.00000000E+00
  0.00000000E+00  0.00000000E+00  0.00000000E+00
  0.00000000E+00  0.00000000E+00  0.00000000E+00
  0.00000000E+00  0.00000000E+00  0.00000000E+00
  0.00000000E+00  0.00000000E+00  0.00000000E+00
  0.00000000E+00  0.00000000E+00  0.00000000E+00
  0.00000000E+00  0.00000000E+00  0.00000000E+00
  0.00000000E+00  0.00000000E+00  0.00000000E+00
  0.00000000E+00  0.00000000E+00  0.00000000E+00
  0.00000000E+00  0.00000000E+00  0.00000000E+00
  0.00000000E+00  0.00000000E+00  0.00000000E+00
  0.00000000E+00  0.00000000E+00  0.00000000E+00
  0.00000000E+00  0.00000000E+00  0.00000000E+00
  0.00000000E+00  0.00000000E+00  0.00000000E+00
  0.00000000E+00  0.00000000E+00  0.00000000E+00
  0.00000000E+00  0.00000000E+00  0.00000000E+00
  0.00000000E+00  0.00000000E+00  0.00000000E+00
  0.00000000E+00  0.00000000E+00  0.00000000E+00
  0.00000000E+00  0.00000000E+00  0.00000000E+00
  0.00000000E+00  0.00000000E+00  0.00000000E+00
  0.00000000E+00  0.00000000E+00  0.00000000E+00
  0.00000000E+00  0.00000000E+00  0.00000000E+00
  0.00000000E+00  0.00000000E+00  0.00000000E+00
  0.00000000E+00  0.00000000E+00  0.00000000E+00
  0.00000000E+00  0.00000000E+00  0.00000000E+00
  0.00000000E+00  0.00000000E+00  0.00000000E+00
  0.00000000E+00  0.00000000E+00  0.00000000E+00
  0.00000000E+00  0.00000000E+00  0.00000000E+00
  0.00000000E+00  0.00000000E+00  0.00000000E+00
  0.00000000E+00  0.00000000E+00  0.00000000E+00
  0.00000000E+00  0.00000000E+00  0.00000000E+00
  0.00000000E+00  0.00000000E+00  0.00000000E+00
  0.00000000E+00  0.00000000E+00  0.00000000E+00
  0.00000000E+00  0.00000000E+00  0.00000000E+00
  0.00000000E+00  0.00000000E+00  0.00000000E+00
  0.00000000E+00  0.00000000E+00  0.00000000E+00
  0.00000000E+00  0.00000000E+00  0.00000000E+00
  0.00000000E+00  0.00000000E+00  0.00000000E+00
