title
1.
3.940523000 0.000000000 0.000000000
0.000000000 3.940523000 0.000000000
0.000000000 0.000000000 3.940523000
3 1 1
Cartesian
3.940523000 1.970261500 1.970261500    O
1.970261500 3.940523000 1.970261500    O
1.970261500 1.970261500 3.940523000    O
3.940523000 3.940523000 3.940523000    Sr_sv
1.970261500 1.970261500 1.970261500    Ti_sv
