title                                   
   1.00000000000000     
     7.9479056721884174    3.9710347296851678    0.0000000000000000
     7.9479056721884174   -3.9710347296851678   -0.0000000000000000
    -7.9479056721884174   -0.0000000000000000   -3.9710347296851678
   Nb   O    Sr   Ti
     1    12     4     3
Direct
  0.1250000000000000  0.6250000000000000  0.5000000000000000
  0.2506266270426176  0.7506266270426174  0.5000000000000000
  0.3761131739514382  0.3738868260485618  0.5000000000000000
  0.8738868260485617  0.3738868260485618 -0.0022263479028765
  0.5004044062668955  0.0004044062668957  0.5000000000000000
  0.6250000000000000  0.6250000000000000  0.5000000000000000
  0.1250000000000000  0.6250000000000000 -0.0000000000000000
  0.7495955937331045  0.2495955937331043  0.5000000000000000
  0.8738868260485617  0.8761131739514383  0.5000000000000000
  0.3761131739514382  0.8761131739514383  0.0022263479028765
 -0.0006266270426175  0.4993733729573824  0.5000000000000000
  0.1250000000000000  0.1250000000000000  0.5000000000000000
  0.6250000000000000  0.1250000000000000 -0.0000000000000000
  0.2542922237638758  0.2542922237638758  0.0000000000000000
  0.4957077762361242  0.4957077762361242 -0.0000000000000000
  0.7542922237638758  0.7542922237638758  0.0000000000000000
 -0.0042922237638758 -0.0042922237638758 -0.0000000000000000
  0.3776533611523217  0.8776533611523215  0.5000000000000000
  0.6250000000000000  0.1250000000000000  0.5000000000000000
  0.8723466388476785  0.3723466388476783  0.5000000000000000
 
  0.00000000E+00  0.00000000E+00  0.00000000E+00
  0.00000000E+00  0.00000000E+00  0.00000000E+00
  0.00000000E+00  0.00000000E+00  0.00000000E+00
  0.00000000E+00  0.00000000E+00  0.00000000E+00
  0.00000000E+00  0.00000000E+00  0.00000000E+00
  0.00000000E+00  0.00000000E+00  0.00000000E+00
  0.00000000E+00  0.00000000E+00  0.00000000E+00
  0.00000000E+00  0.00000000E+00  0.00000000E+00
  0.00000000E+00  0.00000000E+00  0.00000000E+00
  0.00000000E+00  0.00000000E+00  0.00000000E+00
  0.00000000E+00  0.00000000E+00  0.00000000E+00
  0.00000000E+00  0.00000000E+00  0.00000000E+00
  0.00000000E+00  0.00000000E+00  0.00000000E+00
  0.00000000E+00  0.00000000E+00  0.00000000E+00
  0.00000000E+00  0.00000000E+00  0.00000000E+00
  0.00000000E+00  0.00000000E+00  0.00000000E+00
  0.00000000E+00  0.00000000E+00  0.00000000E+00
  0.00000000E+00  0.00000000E+00  0.00000000E+00
  0.00000000E+00  0.00000000E+00  0.00000000E+00
  0.00000000E+00  0.00000000E+00  0.00000000E+00
