title                                   
   1.00000000000000     
     7.9479056721884174    3.9710347296851678    0.0000000000000000
     7.9479056721884174   -3.9710347296851678    0.0000000000000000
    -7.9479056721884174    0.0000000000000000   -3.9710347296851678
   Nb   O    Sr   Ti
     1    12     4     3
Direct
  0.1250000000000000  0.6250000000000000  0.5000000000000000
  0.2506266270426210  0.7506266270426210  0.5000000000000000
  0.3761131739514383  0.3738868260485617  0.5000000000000000
  0.8738868260485617  0.3738868260485617  0.9977736520971234
  0.5004044062668953  0.0004044062668953  0.5000000000000000
  0.6250000000000000  0.6250000000000000  0.5000000000000000
  0.1250000000000000  0.6250000000000000  0.0000000000000000
  0.7495955937331047  0.2495955937331047  0.5000000000000000
  0.8738868260485617  0.8761131739514383  0.5000000000000000
  0.3761131739514383  0.8761131739514383  0.0022263479028766
  0.9993733729573790  0.4993733729573790  0.5000000000000000
  0.1250000000000000  0.1250000000000000  0.5000000000000000
  0.6250000000000000  0.1250000000000000  0.0000000000000000
  0.2542922237638763  0.2542922237638763  0.0000000000000000
  0.4957077762361237  0.4957077762361237  0.0000000000000000
  0.7542922237638763  0.7542922237638763  0.0000000000000000
  0.9957077762361237  0.9957077762361237  0.0000000000000000
  0.3776533611523192  0.8776533611523192  0.5000000000000000
  0.6250000000000000  0.1250000000000000  0.5000000000000000
  0.8723466388476808  0.3723466388476808  0.5000000000000000
 
  0.00000000E+00  0.00000000E+00  0.00000000E+00
  0.00000000E+00  0.00000000E+00  0.00000000E+00
  0.00000000E+00  0.00000000E+00  0.00000000E+00
  0.00000000E+00  0.00000000E+00  0.00000000E+00
  0.00000000E+00  0.00000000E+00  0.00000000E+00
  0.00000000E+00  0.00000000E+00  0.00000000E+00
  0.00000000E+00  0.00000000E+00  0.00000000E+00
  0.00000000E+00  0.00000000E+00  0.00000000E+00
  0.00000000E+00  0.00000000E+00  0.00000000E+00
  0.00000000E+00  0.00000000E+00  0.00000000E+00
  0.00000000E+00  0.00000000E+00  0.00000000E+00
  0.00000000E+00  0.00000000E+00  0.00000000E+00
  0.00000000E+00  0.00000000E+00  0.00000000E+00
  0.00000000E+00  0.00000000E+00  0.00000000E+00
  0.00000000E+00  0.00000000E+00  0.00000000E+00
  0.00000000E+00  0.00000000E+00  0.00000000E+00
  0.00000000E+00  0.00000000E+00  0.00000000E+00
  0.00000000E+00  0.00000000E+00  0.00000000E+00
  0.00000000E+00  0.00000000E+00  0.00000000E+00
  0.00000000E+00  0.00000000E+00  0.00000000E+00
