title                                   
   1.00000000000000     
    20.1946463078302187    0.0005818395591961    0.0000000000000000
     0.0003507777004408   12.1514607521924667    0.0000000000000000
     0.0000000000000000    0.0000000000000000    4.0404902385786450
   Nb   O    Sr   Ti
    13    45    15     2
Direct
  0.0992244079634209  0.1665319536790847  0.5000000001268887
  0.3000995481427846  0.1663322946696839  0.5000000001268887
  0.5003414877726218  0.1660550888128193  0.5000000001268887
  0.7004792248558709  0.1663440420257428  0.5000000001268887
  0.0996945351848364  0.4997808888914423  0.5000000001268887
  0.3003054778286742  0.5002191111085574  0.5000000001268887
  0.5001721292456625  0.5005343877486196  0.5000000001268887
  0.6999999880066596  0.5000000000000000  0.5000000001268887
  0.8998278467676568  0.4994656122513807  0.5000000001268887
  0.0999004648707260  0.8336676763156300  0.5000000001268887
  0.3007756050500897  0.8334680173062297  0.5000000001268887
  0.6995207511574484  0.8336559289595716  0.5000000001268887
  0.8996584882406976  0.8339448821724947  0.5000000001268887
 -0.0012033070189173  0.1665168926119615  0.5000000001268887
  0.1000973374775971  0.0002322565713064  0.5000000001268887
  0.0993768648842817  0.1666523109405892  0.0000000000000000
  0.1995822446401739  0.1664821628612746  0.5000000001268887
  0.2999026755359135 -0.0002322565713064  0.5000000001268887
  0.2995203159691226  0.1671855304630461  0.0000000000000000
  0.4002205588101897  0.1668338192954422  0.5000000001268887
  0.5001230449719519 -0.0018910866308719  0.5000000001268887
  0.5001963744677339  0.1658320226611441  0.0000000000000000
  0.6003748606045877  0.1668058863257633  0.5000000001268887
  0.6999999880066596  0.0000000000000000  0.5000000001268887
  0.7009654022271907  0.1671186299862131  0.0000000000000000
  0.8010310773363878  0.1664889235148766  0.5000000001268887
  0.8998769310413672  0.0018910866308719  0.5000000001268887
  0.8999138392988236  0.1665932182039281  0.0000000000000000
 -0.0002053996584584  0.5003894657202630  0.5000000001268887
  0.1000404095076775  0.3330570639819074  0.5000000001268887
  0.1003608344174896  0.5005087863102159  0.0000000000000000
  0.2000000030046820  0.5000000000000000  0.5000000001268887
  0.3002721525423814  0.3332926384251859  0.5000000001268887
  0.2996391785960210  0.4994912136897842  0.0000000000000000
  0.4002054056678153  0.4996105342797374  0.5000000001268887
  0.5001218757374430  0.3332873549542159  0.5000000001268887
  0.5000998417221987  0.5008185544063336  0.0000000000000000
  0.5999766705883186  0.4996014735243058  0.5000000001268887
  0.6996845616549550  0.3329838901475670  0.5000000001268887
  0.6999999880066596  0.5000000000000000  0.0000000000000000
  0.8000233654170831  0.5003985264756944  0.5000000001268887
  0.8999458659497696  0.3313791616477716  0.5000000001268887
  0.8999001342911206  0.4991814455936664  0.0000000000000000
 -0.0002205528008327  0.8331661516898721  0.5000000001268887
  0.0997278604711293  0.6667073905895001  0.5000000001268887
  0.1004796970443879  0.8328144405222679  0.0000000000000000
  0.2004177613691902  0.8335178081240397  0.5000000001268887
  0.2999596035058331  0.6669429650327786  0.5000000001268887
  0.3006231481292290  0.8333476600447250  0.0000000000000000
  0.4012033130282742  0.8334830783733528  0.5000000001268887
  0.5000541100635497  0.6686208673669140  0.5000000001268887
  0.5000861367144958  0.8334067527813861  0.0000000000000000
  0.5989689586690139  0.8335110474704377  0.5000000001268887
  0.7003154143583643  0.6670161388671189  0.5000000001268887
  0.6990345737861285  0.8328813409991010  0.0000000000000000
  0.7996251754008140  0.8331940846595511  0.5000000001268887
  0.8998781002758762  0.6667126740604701  0.5000000001268887
  0.8998036015455854  0.8341679483241702  0.0000000000000000
 -0.0044425013713823  0.0068486835422138  0.0000000000000000
  0.2000000030046820  0.0000000000000000  0.0000000000000000
  0.4044425073807393 -0.0068486835422138  0.0000000000000000
  0.5966886580717268 -0.0070140913971789  0.0000000000000000
  0.8033113779336749  0.0070140913971789  0.0000000000000000
 -0.0044187434040148  0.3262901787036442  0.0000000000000000
  0.1994063288719045  0.3334377247359089  0.0000000000000000
  0.3998370111157777  0.3332484900829634  0.0000000000000000
  0.6013638152207030  0.3335134410820900  0.0000000000000000
  0.8037932513598264  0.3264012395319534  0.0000000000000000
  0.0001629948935792  0.6667515389317226  0.0000000000000000
  0.2005936771374595  0.6665623042787768  0.0000000000000000
  0.4044187494133718  0.6737098503110415  0.0000000000000000
  0.5962067846455753  0.6735987894827323  0.0000000000000000
  0.7986362207846986  0.6664865879325955  0.0000000000000000
  0.8997833205097822  0.1665191749212087  0.5000000001268887
  0.5002166555035371  0.8334807960641055  0.5000000001268887
 
  0.00000000E+00  0.00000000E+00  0.00000000E+00
  0.00000000E+00  0.00000000E+00  0.00000000E+00
  0.00000000E+00  0.00000000E+00  0.00000000E+00
  0.00000000E+00  0.00000000E+00  0.00000000E+00
  0.00000000E+00  0.00000000E+00  0.00000000E+00
  0.00000000E+00  0.00000000E+00  0.00000000E+00
  0.00000000E+00  0.00000000E+00  0.00000000E+00
  0.00000000E+00  0.00000000E+00  0.00000000E+00
  0.00000000E+00  0.00000000E+00  0.00000000E+00
  0.00000000E+00  0.00000000E+00  0.00000000E+00
  0.00000000E+00  0.00000000E+00  0.00000000E+00
  0.00000000E+00  0.00000000E+00  0.00000000E+00
  0.00000000E+00  0.00000000E+00  0.00000000E+00
  0.00000000E+00  0.00000000E+00  0.00000000E+00
  0.00000000E+00  0.00000000E+00  0.00000000E+00
  0.00000000E+00  0.00000000E+00  0.00000000E+00
  0.00000000E+00  0.00000000E+00  0.00000000E+00
  0.00000000E+00  0.00000000E+00  0.00000000E+00
  0.00000000E+00  0.00000000E+00  0.00000000E+00
  0.00000000E+00  0.00000000E+00  0.00000000E+00
  0.00000000E+00  0.00000000E+00  0.00000000E+00
  0.00000000E+00  0.00000000E+00  0.00000000E+00
  0.00000000E+00  0.00000000E+00  0.00000000E+00
  0.00000000E+00  0.00000000E+00  0.00000000E+00
  0.00000000E+00  0.00000000E+00  0.00000000E+00
  0.00000000E+00  0.00000000E+00  0.00000000E+00
  0.00000000E+00  0.00000000E+00  0.00000000E+00
  0.00000000E+00  0.00000000E+00  0.00000000E+00
  0.00000000E+00  0.00000000E+00  0.00000000E+00
  0.00000000E+00  0.00000000E+00  0.00000000E+00
  0.00000000E+00  0.00000000E+00  0.00000000E+00
  0.00000000E+00  0.00000000E+00  0.00000000E+00
  0.00000000E+00  0.00000000E+00  0.00000000E+00
  0.00000000E+00  0.00000000E+00  0.00000000E+00
  0.00000000E+00  0.00000000E+00  0.00000000E+00
  0.00000000E+00  0.00000000E+00  0.00000000E+00
  0.00000000E+00  0.00000000E+00  0.00000000E+00
  0.00000000E+00  0.00000000E+00  0.00000000E+00
  0.00000000E+00  0.00000000E+00  0.00000000E+00
  0.00000000E+00  0.00000000E+00  0.00000000E+00
  0.00000000E+00  0.00000000E+00  0.00000000E+00
  0.00000000E+00  0.00000000E+00  0.00000000E+00
  0.00000000E+00  0.00000000E+00  0.00000000E+00
  0.00000000E+00  0.00000000E+00  0.00000000E+00
  0.00000000E+00  0.00000000E+00  0.00000000E+00
  0.00000000E+00  0.00000000E+00  0.00000000E+00
  0.00000000E+00  0.00000000E+00  0.00000000E+00
  0.00000000E+00  0.00000000E+00  0.00000000E+00
  0.00000000E+00  0.00000000E+00  0.00000000E+00
  0.00000000E+00  0.00000000E+00  0.00000000E+00
  0.00000000E+00  0.00000000E+00  0.00000000E+00
  0.00000000E+00  0.00000000E+00  0.00000000E+00
  0.00000000E+00  0.00000000E+00  0.00000000E+00
  0.00000000E+00  0.00000000E+00  0.00000000E+00
  0.00000000E+00  0.00000000E+00  0.00000000E+00
  0.00000000E+00  0.00000000E+00  0.00000000E+00
  0.00000000E+00  0.00000000E+00  0.00000000E+00
  0.00000000E+00  0.00000000E+00  0.00000000E+00
  0.00000000E+00  0.00000000E+00  0.00000000E+00
  0.00000000E+00  0.00000000E+00  0.00000000E+00
  0.00000000E+00  0.00000000E+00  0.00000000E+00
  0.00000000E+00  0.00000000E+00  0.00000000E+00
  0.00000000E+00  0.00000000E+00  0.00000000E+00
  0.00000000E+00  0.00000000E+00  0.00000000E+00
  0.00000000E+00  0.00000000E+00  0.00000000E+00
  0.00000000E+00  0.00000000E+00  0.00000000E+00
  0.00000000E+00  0.00000000E+00  0.00000000E+00
  0.00000000E+00  0.00000000E+00  0.00000000E+00
  0.00000000E+00  0.00000000E+00  0.00000000E+00
  0.00000000E+00  0.00000000E+00  0.00000000E+00
  0.00000000E+00  0.00000000E+00  0.00000000E+00
  0.00000000E+00  0.00000000E+00  0.00000000E+00
  0.00000000E+00  0.00000000E+00  0.00000000E+00
  0.00000000E+00  0.00000000E+00  0.00000000E+00
  0.00000000E+00  0.00000000E+00  0.00000000E+00
