title                                   
   1.00000000000000     
     4.0337182332583303   -8.0625989541110101    4.0337182332583303
     8.0625989541110101   -4.0337182332583303    4.0337182332583303
     4.0337182332583303   -4.0337182332583312    8.0625989541110084
   Nb   O    Sr   Ti
     3    12     4     1
Direct
  0.3758054060939871  0.3758054060939871  0.3758054060939871
  0.6250000000000000  0.6250000000000000  0.6250000000000000
  0.8741945939060131  0.8741945939060131  0.8741945939060131
  0.2492558209431294  0.7527730017617185  0.2492558209431294
  0.0008914358164172  0.4999550960671202  0.4999550960671202
  0.2492558209431294  0.2492558209431294  0.7527730017617185
  0.4999550960671202  0.0008914358164172  0.4999550960671202
  0.2491085641835828  0.7500449039328801  0.7500449039328801
  0.4999550960671202  0.4999550960671202  0.0008914358164172
  0.7500449039328801  0.2491085641835828  0.7500449039328801
  0.4972269982382812  0.0007441790568706  0.0007441790568706
  0.7500449039328801  0.7500449039328801  0.2491085641835829
  0.0007441790568706  0.4972269982382812  0.0007441790568706
  0.7527730017617185  0.2492558209431294  0.2492558209431294
  0.0007441790568706  0.0007441790568706  0.4972269982382812
  0.7522839290143538  0.7522839290143538  0.7522839290143538
  0.0027404156331141  0.0027404156331141  0.0027404156331141
  0.2472595843668859  0.2472595843668859  0.2472595843668859
  0.4977160709856462  0.4977160709856462  0.4977160709856462
  0.1250000000000000  0.1250000000000000  0.1250000000000000
 
  0.00000000E+00  0.00000000E+00  0.00000000E+00
  0.00000000E+00  0.00000000E+00  0.00000000E+00
  0.00000000E+00  0.00000000E+00  0.00000000E+00
  0.00000000E+00  0.00000000E+00  0.00000000E+00
  0.00000000E+00  0.00000000E+00  0.00000000E+00
  0.00000000E+00  0.00000000E+00  0.00000000E+00
  0.00000000E+00  0.00000000E+00  0.00000000E+00
  0.00000000E+00  0.00000000E+00  0.00000000E+00
  0.00000000E+00  0.00000000E+00  0.00000000E+00
  0.00000000E+00  0.00000000E+00  0.00000000E+00
  0.00000000E+00  0.00000000E+00  0.00000000E+00
  0.00000000E+00  0.00000000E+00  0.00000000E+00
  0.00000000E+00  0.00000000E+00  0.00000000E+00
  0.00000000E+00  0.00000000E+00  0.00000000E+00
  0.00000000E+00  0.00000000E+00  0.00000000E+00
  0.00000000E+00  0.00000000E+00  0.00000000E+00
  0.00000000E+00  0.00000000E+00  0.00000000E+00
  0.00000000E+00  0.00000000E+00  0.00000000E+00
  0.00000000E+00  0.00000000E+00  0.00000000E+00
  0.00000000E+00  0.00000000E+00  0.00000000E+00
