title                                   
   1.00000000000000     
    -0.0000000000000000   -0.0000000000000000   -4.0041147043541185
    -0.0000000000000000    4.0041147043541185    0.0000000000000000
     8.0054472441589564    0.0000000000000000    0.0000000000000000
   Nb   O    Sr   Ti
     1     6     2     1
Direct
  0.5000000000000000  0.5000000000000000  0.2500000000000000
  0.5000000000000000  0.5000000000000000  0.5009686217617603
  0.5000000000000000 -0.0000000000000000  0.2500000000000000
 -0.0000000000000000  0.5000000000000000  0.2500000000000000
  0.5000000000000000  0.5000000000000000 -0.0009686217617601
  0.5000000000000000 -0.0000000000000000  0.7500000000000000
 -0.0000000000000000  0.5000000000000000  0.7500000000000000
 -0.0000000000000000 -0.0000000000000000  0.5160552799301006
 -0.0000000000000000  0.0000000000000000 -0.0160552799301007
  0.5000000000000000  0.5000000000000000  0.7500000000000000
 
  0.00000000E+00  0.00000000E+00  0.00000000E+00
  0.00000000E+00  0.00000000E+00  0.00000000E+00
  0.00000000E+00  0.00000000E+00  0.00000000E+00
  0.00000000E+00  0.00000000E+00  0.00000000E+00
  0.00000000E+00  0.00000000E+00  0.00000000E+00
  0.00000000E+00  0.00000000E+00  0.00000000E+00
  0.00000000E+00  0.00000000E+00  0.00000000E+00
  0.00000000E+00  0.00000000E+00  0.00000000E+00
  0.00000000E+00  0.00000000E+00  0.00000000E+00
  0.00000000E+00  0.00000000E+00  0.00000000E+00
