title                                   
   1.00000000000000     
    20.1012274364284522    0.0000000000000000    0.0000000000000000
     0.0000000000000000   12.0812647818927950    0.0000000000000000
     0.0000000000000000   -0.0000000000000000    4.0209043570869660
   Nb   O    Sr   Ti
    10    45    15     5
Direct
  0.1000000010201703  0.1687552546329783  0.5000000001268887
  0.3000000119933404  0.1687552546329783  0.5000000001268887
  0.5000000000253806  0.1687552546329783  0.5000000001268887
  0.6999999880066596  0.1687552546329783  0.5000000001268887
  0.8999999759879387  0.1687552546329783  0.5000000001268887
  0.1000000010201703  0.8312447163523361  0.5000000001268887
  0.3000000119933404  0.8312447163523361  0.5000000001268887
  0.5000000000253806  0.8312447163523361  0.5000000001268887
  0.6999999880066596  0.8312447163523361  0.5000000001268887
  0.8999999759879387  0.8312447163523361  0.5000000001268887
  0.0000000000000000  0.1666323192588641  0.5000000001268887
  0.1000000010201703  0.0000000000000000  0.5000000001268887
  0.1000000010201703  0.1663510340749254 -0.0000000000000000
  0.2000000030046820  0.1666323192588641  0.5000000001268887
  0.3000000119933404  0.0000000000000000  0.5000000001268887
  0.3000000119933404  0.1663510340749254  0.0000000000000000
  0.4000000060093569  0.1666323192588641  0.5000000001268887
  0.5000000000253806  0.0000000000000000  0.5000000001268887
  0.5000000000253806  0.1663510340749254 -0.0000000000000000
  0.6000000239866807  0.1666323192588641  0.5000000001268887
  0.6999999880066596  0.0000000000000000  0.5000000001268887
  0.6999999880066596  0.1663510340749254  0.0000000000000000
  0.8000000120187210  0.1666323192588641  0.5000000001268887
  0.8999999759879387  0.0000000000000000  0.5000000001268887
  0.8999999759879387  0.1663510340749254 -0.0000000000000000
  0.0000000000000000  0.5000000000000000  0.5000000001268887
  0.1000000010201703  0.3353428699900611  0.5000000001268887
  0.1000000010201703  0.5000000000000000 -0.0000000000000000
  0.2000000030046820  0.5000000000000000  0.5000000001268887
  0.3000000119933404  0.3353428699900611  0.5000000001268887
  0.3000000119933404  0.5000000000000000 -0.0000000000000000
  0.4000000060093569  0.5000000000000000  0.5000000001268887
  0.5000000000253806  0.3353428699900611  0.5000000001268887
  0.5000000000253806  0.5000000000000000 -0.0000000000000000
  0.6000000239866807  0.5000000000000000  0.5000000001268887
  0.6999999880066596  0.3353428699900611  0.5000000001268887
  0.6999999880066596  0.5000000000000000 -0.0000000000000000
  0.8000000120187210  0.5000000000000000  0.5000000001268887
  0.8999999759879387  0.3353428699900611  0.5000000001268887
  0.8999999759879387  0.5000000000000000 -0.0000000000000000
  0.0000000000000000  0.8333676517264504  0.5000000001268887
  0.1000000010201703  0.6646571590246246  0.5000000001268887
  0.1000000010201703  0.8336489369103890 -0.0000000000000000
  0.2000000030046820  0.8333676517264504  0.5000000001268887
  0.3000000119933404  0.6646571590246246  0.5000000001268887
  0.3000000119933404  0.8336489369103890  0.0000000000000000
  0.4000000060093569  0.8333676517264504  0.5000000001268887
  0.5000000000253806  0.6646571590246246  0.5000000001268887
  0.5000000000253806  0.8336489369103890 -0.0000000000000000
  0.6000000239866807  0.8333676517264504  0.5000000001268887
  0.6999999880066596  0.6646571590246246  0.5000000001268887
  0.6999999880066596  0.8336489369103890 -0.0000000000000000
  0.8000000120187210  0.8333676517264504  0.5000000001268887
  0.8999999759879387  0.6646571590246246  0.5000000001268887
  0.8999999759879387  0.8336489369103890 -0.0000000000000000
  0.0000000000000000  0.0000000000000000 -0.0000000000000000
  0.2000000030046820  0.0000000000000000  0.0000000000000000
  0.4000000060093569  0.0000000000000000 -0.0000000000000000
  0.6000000239866807  0.0000000000000000 -0.0000000000000000
  0.8000000120187210  0.0000000000000000 -0.0000000000000000
  0.0000000000000000  0.3464860107695045 -0.0000000000000000
  0.2000000030046820  0.3464860107695045 -0.0000000000000000
  0.4000000060093569  0.3464860107695045  0.0000000000000000
  0.6000000239866807  0.3464860107695045 -0.0000000000000000
  0.8000000120187210  0.3464860107695045 -0.0000000000000000
 -0.0000000000000000  0.6535140182451814  0.0000000000000000
  0.2000000030046820  0.6535140182451814 -0.0000000000000000
  0.4000000060093569  0.6535140182451814 -0.0000000000000000
  0.6000000239866807  0.6535140182451814 -0.0000000000000000
  0.8000000120187210  0.6535140182451814  0.0000000000000000
  0.1000000010201703  0.5000000000000000  0.5000000001268887
  0.3000000119933404  0.5000000000000000  0.5000000001268887
  0.5000000000253806  0.5000000000000000  0.5000000001268887
  0.6999999880066596  0.5000000000000000  0.5000000001268887
  0.8999999759879387  0.5000000000000000  0.5000000001268887
 
  0.00000000E+00  0.00000000E+00  0.00000000E+00
  0.00000000E+00  0.00000000E+00  0.00000000E+00
  0.00000000E+00  0.00000000E+00  0.00000000E+00
  0.00000000E+00  0.00000000E+00  0.00000000E+00
  0.00000000E+00  0.00000000E+00  0.00000000E+00
  0.00000000E+00  0.00000000E+00  0.00000000E+00
  0.00000000E+00  0.00000000E+00  0.00000000E+00
  0.00000000E+00  0.00000000E+00  0.00000000E+00
  0.00000000E+00  0.00000000E+00  0.00000000E+00
  0.00000000E+00  0.00000000E+00  0.00000000E+00
  0.00000000E+00  0.00000000E+00  0.00000000E+00
  0.00000000E+00  0.00000000E+00  0.00000000E+00
  0.00000000E+00  0.00000000E+00  0.00000000E+00
  0.00000000E+00  0.00000000E+00  0.00000000E+00
  0.00000000E+00  0.00000000E+00  0.00000000E+00
  0.00000000E+00  0.00000000E+00  0.00000000E+00
  0.00000000E+00  0.00000000E+00  0.00000000E+00
  0.00000000E+00  0.00000000E+00  0.00000000E+00
  0.00000000E+00  0.00000000E+00  0.00000000E+00
  0.00000000E+00  0.00000000E+00  0.00000000E+00
  0.00000000E+00  0.00000000E+00  0.00000000E+00
  0.00000000E+00  0.00000000E+00  0.00000000E+00
  0.00000000E+00  0.00000000E+00  0.00000000E+00
  0.00000000E+00  0.00000000E+00  0.00000000E+00
  0.00000000E+00  0.00000000E+00  0.00000000E+00
  0.00000000E+00  0.00000000E+00  0.00000000E+00
  0.00000000E+00  0.00000000E+00  0.00000000E+00
  0.00000000E+00  0.00000000E+00  0.00000000E+00
  0.00000000E+00  0.00000000E+00  0.00000000E+00
  0.00000000E+00  0.00000000E+00  0.00000000E+00
  0.00000000E+00  0.00000000E+00  0.00000000E+00
  0.00000000E+00  0.00000000E+00  0.00000000E+00
  0.00000000E+00  0.00000000E+00  0.00000000E+00
  0.00000000E+00  0.00000000E+00  0.00000000E+00
  0.00000000E+00  0.00000000E+00  0.00000000E+00
  0.00000000E+00  0.00000000E+00  0.00000000E+00
  0.00000000E+00  0.00000000E+00  0.00000000E+00
  0.00000000E+00  0.00000000E+00  0.00000000E+00
  0.00000000E+00  0.00000000E+00  0.00000000E+00
  0.00000000E+00  0.00000000E+00  0.00000000E+00
  0.00000000E+00  0.00000000E+00  0.00000000E+00
  0.00000000E+00  0.00000000E+00  0.00000000E+00
  0.00000000E+00  0.00000000E+00  0.00000000E+00
  0.00000000E+00  0.00000000E+00  0.00000000E+00
  0.00000000E+00  0.00000000E+00  0.00000000E+00
  0.00000000E+00  0.00000000E+00  0.00000000E+00
  0.00000000E+00  0.00000000E+00  0.00000000E+00
  0.00000000E+00  0.00000000E+00  0.00000000E+00
  0.00000000E+00  0.00000000E+00  0.00000000E+00
  0.00000000E+00  0.00000000E+00  0.00000000E+00
  0.00000000E+00  0.00000000E+00  0.00000000E+00
  0.00000000E+00  0.00000000E+00  0.00000000E+00
  0.00000000E+00  0.00000000E+00  0.00000000E+00
  0.00000000E+00  0.00000000E+00  0.00000000E+00
  0.00000000E+00  0.00000000E+00  0.00000000E+00
  0.00000000E+00  0.00000000E+00  0.00000000E+00
  0.00000000E+00  0.00000000E+00  0.00000000E+00
  0.00000000E+00  0.00000000E+00  0.00000000E+00
  0.00000000E+00  0.00000000E+00  0.00000000E+00
  0.00000000E+00  0.00000000E+00  0.00000000E+00
  0.00000000E+00  0.00000000E+00  0.00000000E+00
  0.00000000E+00  0.00000000E+00  0.00000000E+00
  0.00000000E+00  0.00000000E+00  0.00000000E+00
  0.00000000E+00  0.00000000E+00  0.00000000E+00
  0.00000000E+00  0.00000000E+00  0.00000000E+00
  0.00000000E+00  0.00000000E+00  0.00000000E+00
  0.00000000E+00  0.00000000E+00  0.00000000E+00
  0.00000000E+00  0.00000000E+00  0.00000000E+00
  0.00000000E+00  0.00000000E+00  0.00000000E+00
  0.00000000E+00  0.00000000E+00  0.00000000E+00
  0.00000000E+00  0.00000000E+00  0.00000000E+00
  0.00000000E+00  0.00000000E+00  0.00000000E+00
  0.00000000E+00  0.00000000E+00  0.00000000E+00
  0.00000000E+00  0.00000000E+00  0.00000000E+00
  0.00000000E+00  0.00000000E+00  0.00000000E+00
