title                                   
   1.00000000000000     
    -4.0186340636983706   -4.0186340636983697    0.0000000000000000
     4.0186340636983706   -0.0000000000000000   -4.0186340636983697
     4.0244045309316432   -4.0244045309316441    4.0244045309316441
   Nb   O    Sr   Ti
     2     9     3     1
Direct
  0.0000000000000000  0.0000000000000000  0.4951891686762714
  0.6666666666666643  0.3333333333333357  0.8381441646570642
  0.8333333333333357  0.1666666666666643  0.6666666666666643
  0.6649598511635774  0.8324799255817924  0.3315844539188737
  0.8333333333333357  0.6666666666666643  0.6666666666666643
  0.4991465922484565  0.5008534077515433  0.0017488794144620
  0.3333333333333357  0.1666666666666643  0.6666666666666643
  0.4991465922484565 -0.0017068155030868  0.0017488794144620
  0.1675200744182077  0.8324799255817924  0.3315844539188737
  0.0017068155030868  0.5008534077515433  0.0017488794144620
  0.1675200744182077  0.3350401488364224  0.3315844539188737
  0.3333333333333357  0.6666666666666643  0.6666666666666643
  0.0000000000000000 -0.0000000000000000  0.0050152339730290
  0.6666666666666643  0.3333333333333357  0.3283180993603069
  0.3333333333333357  0.6666666666666643  0.1666666666666643
 
  0.00000000E+00  0.00000000E+00  0.00000000E+00
  0.00000000E+00  0.00000000E+00  0.00000000E+00
  0.00000000E+00  0.00000000E+00  0.00000000E+00
  0.00000000E+00  0.00000000E+00  0.00000000E+00
  0.00000000E+00  0.00000000E+00  0.00000000E+00
  0.00000000E+00  0.00000000E+00  0.00000000E+00
  0.00000000E+00  0.00000000E+00  0.00000000E+00
  0.00000000E+00  0.00000000E+00  0.00000000E+00
  0.00000000E+00  0.00000000E+00  0.00000000E+00
  0.00000000E+00  0.00000000E+00  0.00000000E+00
  0.00000000E+00  0.00000000E+00  0.00000000E+00
  0.00000000E+00  0.00000000E+00  0.00000000E+00
  0.00000000E+00  0.00000000E+00  0.00000000E+00
  0.00000000E+00  0.00000000E+00  0.00000000E+00
  0.00000000E+00  0.00000000E+00  0.00000000E+00
