title                                   
   1.00000000000000     
    -0.0000000000000000    0.0000000000000000   -3.9851494797727915
    -0.0000000000000000    3.9851494797727915   -0.0000000000000000
    11.9543286966869431   -0.0000000000000000    0.0000000000000000
   Nb   O    Sr   Ti
     1     9     3     2
Direct
  0.5000000000000000  0.5000000000000000  0.1666666666666643
  0.5000000000000000  0.5000000000000000  0.3341282689618124
  0.5000000000000000  0.0000000000000000  0.1666666666666643
  0.0000000000000000  0.5000000000000000  0.1666666666666643
  0.5000000000000000  0.5000000000000000  0.6666666666666643
  0.5000000000000000  0.0000000000000000  0.5003306127541568
  0.0000000000000000  0.5000000000000000  0.5003306127541568
  0.5000000000000000  0.5000000000000000 -0.0007949356284767
  0.5000000000000000 -0.0000000000000000  0.8330027205791788
 -0.0000000000000000  0.5000000000000000  0.8330027205791788
  0.0000000000000000 -0.0000000000000000  0.3473494572487942
  0.0000000000000000  0.0000000000000000  0.6666666666666643
 -0.0000000000000000  0.0000000000000000 -0.0140161239154585
  0.5000000000000000  0.5000000000000000  0.5037909683060716
  0.5000000000000000  0.5000000000000000  0.8295423650272641
 
  0.00000000E+00  0.00000000E+00  0.00000000E+00
  0.00000000E+00  0.00000000E+00  0.00000000E+00
  0.00000000E+00  0.00000000E+00  0.00000000E+00
  0.00000000E+00  0.00000000E+00  0.00000000E+00
  0.00000000E+00  0.00000000E+00  0.00000000E+00
  0.00000000E+00  0.00000000E+00  0.00000000E+00
  0.00000000E+00  0.00000000E+00  0.00000000E+00
  0.00000000E+00  0.00000000E+00  0.00000000E+00
  0.00000000E+00  0.00000000E+00  0.00000000E+00
  0.00000000E+00  0.00000000E+00  0.00000000E+00
  0.00000000E+00  0.00000000E+00  0.00000000E+00
  0.00000000E+00  0.00000000E+00  0.00000000E+00
  0.00000000E+00  0.00000000E+00  0.00000000E+00
  0.00000000E+00  0.00000000E+00  0.00000000E+00
  0.00000000E+00  0.00000000E+00  0.00000000E+00
