title                                   
   1.00000000000000     
     0.0000000000000000    0.0000000000000000   -4.0049045662315494
     0.0000000000000000    4.0049045662315494    0.0000000000000000
    16.0134883115759514    0.0000000000000000    0.0000000000000000
   Nb   O    Sr   Ti
     2    12     4     2
Direct
  0.5000000000000000  0.5000000000000000  0.1222042557348431
  0.5000000000000000  0.5000000000000000  0.3777957442651569
  0.5000000000000000  0.5000000000000000  0.2500000000000000
  0.5000000000000000  0.0000000000000000  0.1248173285943182
  0.0000000000000000  0.5000000000000000  0.1248173285943182
  0.5000000000000000  0.5000000000000000  0.5024197559517134
  0.5000000000000000  0.0000000000000000  0.3751826714056818
  0.0000000000000000  0.5000000000000000  0.3751826714056818
  0.5000000000000000  0.5000000000000000  0.7500000000000000
  0.5000000000000000  0.0000000000000000  0.6259113072557057
  0.0000000000000000  0.5000000000000000  0.6259113072557057
  0.5000000000000000  0.5000000000000000  0.9975802440482866
  0.5000000000000000  0.0000000000000000  0.8740886927442943
  0.0000000000000000  0.5000000000000000  0.8740886927442943
  0.0000000000000000  0.0000000000000000  0.2500000000000000
  0.0000000000000000  0.0000000000000000  0.5141458674580122
  0.0000000000000000  0.0000000000000000  0.7500000000000000
  0.0000000000000000  0.0000000000000000  0.9858541325419878
  0.5000000000000000  0.5000000000000000  0.6283853325354372
  0.5000000000000000  0.5000000000000000  0.8716146674645628
 
  0.00000000E+00  0.00000000E+00  0.00000000E+00
  0.00000000E+00  0.00000000E+00  0.00000000E+00
  0.00000000E+00  0.00000000E+00  0.00000000E+00
  0.00000000E+00  0.00000000E+00  0.00000000E+00
  0.00000000E+00  0.00000000E+00  0.00000000E+00
  0.00000000E+00  0.00000000E+00  0.00000000E+00
  0.00000000E+00  0.00000000E+00  0.00000000E+00
  0.00000000E+00  0.00000000E+00  0.00000000E+00
  0.00000000E+00  0.00000000E+00  0.00000000E+00
  0.00000000E+00  0.00000000E+00  0.00000000E+00
  0.00000000E+00  0.00000000E+00  0.00000000E+00
  0.00000000E+00  0.00000000E+00  0.00000000E+00
  0.00000000E+00  0.00000000E+00  0.00000000E+00
  0.00000000E+00  0.00000000E+00  0.00000000E+00
  0.00000000E+00  0.00000000E+00  0.00000000E+00
  0.00000000E+00  0.00000000E+00  0.00000000E+00
  0.00000000E+00  0.00000000E+00  0.00000000E+00
  0.00000000E+00  0.00000000E+00  0.00000000E+00
  0.00000000E+00  0.00000000E+00  0.00000000E+00
  0.00000000E+00  0.00000000E+00  0.00000000E+00
