PREC = Accurate
ISMEAR = -5
EDIFF=1E-5
EDIFFG=-0.01
NSW=41
IBRION = 2
ISIF = 2
ENCUT=500
NPAR=4
