title
1.
3.940523000 0.000000000 0.000000000
0.000000000 3.940523000 0.000000000
0.000000000 0.000000000 3.940523000
1 3 1
Cartesian
1.970261500 1.970261500 1.970261500    Nb_sv
3.940523000 1.970261500 1.970261500    O
1.970261500 3.940523000 1.970261500    O
1.970261500 1.970261500 3.940523000    O
3.940523000 3.940523000 3.940523000    Sr_sv
