title
1.
3.940523000 3.940523000 -3.940523000
3.940523000 -3.940523000 3.940523000
-3.940523000 -3.940523000 -3.940523000
1 12 4 3
Cartesian
1.970261500 -5.910784500 -1.970261500    Nb_sv
0.000000000 -1.970261500 -5.910784500    O
1.970261500 -3.940523000 -1.970261500    O
1.970261500 -5.910784500 0.000000000    O
0.000000000 -5.910784500 -1.970261500    O
1.970261500 0.000000000 -5.910784500    O
1.970261500 -1.970261500 -3.940523000    O
0.000000000 -1.970261500 -1.970261500    O
5.910784500 0.000000000 -1.970261500    O
5.910784500 -1.970261500 0.000000000    O
3.940523000 -1.970261500 -1.970261500    O
1.970261500 0.000000000 -1.970261500    O
1.970261500 -1.970261500 0.000000000    O
3.940523000 -3.940523000 0.000000000    Sr_sv
3.940523000 0.000000000 -3.940523000    Sr_sv
3.940523000 -3.940523000 -3.940523000    Sr_sv
0.000000000 -3.940523000 -3.940523000    Sr_sv
1.970261500 -1.970261500 -5.910784500    Ti_sv
5.910784500 -1.970261500 -1.970261500    Ti_sv
1.970261500 -1.970261500 -1.970261500    Ti_sv
