title                                   
   1.00000000000000     
    -3.9809395725771775   -3.9809395725771775   -0.0000000000000000
     3.9809395725771775    0.0000000000000000   -3.9809395725771775
     3.9829598330100633   -3.9829598330100633    3.9829598330100628
   Nb   O    Sr   Ti
     1     9     3     2
Direct
  0.0000000000000000 -0.0000000000000000  0.5000000000000000
  0.8325904602926139  0.1674095397073861  0.6678755614709431
  0.6651809205852205  0.8325904602926139  0.3321244385290569
  0.8325904602926139  0.6651809205852205  0.6678755614709431
  0.5000000000000000  0.5000000000000000  0.0000000000000000
  0.3348190794147794  0.1674095397073861  0.6678755614709431
  0.5000000000000000 -0.0000000000000000  0.0000000000000000
  0.1674095397073861  0.8325904602926139  0.3321244385290569
  0.0000000000000000  0.5000000000000000  0.0000000000000000
  0.1674095397073861  0.3348190794147794  0.3321244385290569
  0.3333333333333357  0.6666666666666643  0.6723837686828761
  0.0000000000000000 -0.0000000000000000  0.0000000000000000
  0.6666666666666643  0.3333333333333357  0.3276162313171240
  0.6666666666666643  0.3333333333333357  0.8398552748824750
  0.3333333333333357  0.6666666666666643  0.1601447251175247
 
  0.00000000E+00  0.00000000E+00  0.00000000E+00
  0.00000000E+00  0.00000000E+00  0.00000000E+00
  0.00000000E+00  0.00000000E+00  0.00000000E+00
  0.00000000E+00  0.00000000E+00  0.00000000E+00
  0.00000000E+00  0.00000000E+00  0.00000000E+00
  0.00000000E+00  0.00000000E+00  0.00000000E+00
  0.00000000E+00  0.00000000E+00  0.00000000E+00
  0.00000000E+00  0.00000000E+00  0.00000000E+00
  0.00000000E+00  0.00000000E+00  0.00000000E+00
  0.00000000E+00  0.00000000E+00  0.00000000E+00
  0.00000000E+00  0.00000000E+00  0.00000000E+00
  0.00000000E+00  0.00000000E+00  0.00000000E+00
  0.00000000E+00  0.00000000E+00  0.00000000E+00
  0.00000000E+00  0.00000000E+00  0.00000000E+00
  0.00000000E+00  0.00000000E+00  0.00000000E+00
