title                                   
   1.00000000000000     
     0.0000000000000000    0.0000000000000000   -4.0233322272816396
     0.0000000000000000    4.0233322272816396    0.0000000000000000
    12.0613216821098028    0.0000000000000000    0.0000000000000000
   Nb   O    Sr   Ti
     2     9     3     1
Direct
  0.5000000000000000  0.5000000000000000  0.1642302740200847
  0.5000000000000000  0.5000000000000000  0.5024363926465796
  0.5000000000000000  0.5000000000000000  0.3333333333333357
  0.5000000000000000  0.0000000000000000  0.1668309895993261
  0.0000000000000000  0.5000000000000000  0.1668309895993261
  0.5000000000000000  0.5000000000000000  0.6684296942379646
  0.5000000000000000  0.0000000000000000  0.4998356770673382
  0.0000000000000000  0.5000000000000000  0.4998356770673382
  0.5000000000000000  0.5000000000000000  0.9982369724286997
  0.5000000000000000  0.0000000000000000  0.8333333333333357
  0.0000000000000000  0.5000000000000000  0.8333333333333357
  0.0000000000000000  0.0000000000000000  0.3333333333333357
  0.0000000000000000  0.0000000000000000  0.6796935088503346
  0.0000000000000000  0.0000000000000000  0.9869731578163297
  0.5000000000000000  0.5000000000000000  0.8333333333333357
 
  0.00000000E+00  0.00000000E+00  0.00000000E+00
  0.00000000E+00  0.00000000E+00  0.00000000E+00
  0.00000000E+00  0.00000000E+00  0.00000000E+00
  0.00000000E+00  0.00000000E+00  0.00000000E+00
  0.00000000E+00  0.00000000E+00  0.00000000E+00
  0.00000000E+00  0.00000000E+00  0.00000000E+00
  0.00000000E+00  0.00000000E+00  0.00000000E+00
  0.00000000E+00  0.00000000E+00  0.00000000E+00
  0.00000000E+00  0.00000000E+00  0.00000000E+00
  0.00000000E+00  0.00000000E+00  0.00000000E+00
  0.00000000E+00  0.00000000E+00  0.00000000E+00
  0.00000000E+00  0.00000000E+00  0.00000000E+00
  0.00000000E+00  0.00000000E+00  0.00000000E+00
  0.00000000E+00  0.00000000E+00  0.00000000E+00
  0.00000000E+00  0.00000000E+00  0.00000000E+00
