title
1.
5.139700000 0.000000000 0.000000000
0.000000000 5.190380000 0.000000000
-1.779914000 0.000000000 10.497410000
8 12
Cartesian
1.232871139 0.221265899 1.091090298    Hf_pv
3.016871861 4.969114101 4.157614702    Hf_pv
3.461850361 2.816455899 1.533262202    Hf_pv
0.787892639 2.373924101 3.715442798    Hf_pv
0.342914139 0.221265899 6.339795298    Hf_pv
2.126914861 4.969114101 9.406319702    Hf_pv
2.571893361 2.816455899 6.781967202    Hf_pv
-0.102064361 2.373924101 8.964147798    Hf_pv
4.211663573 3.480206884 3.424013702    O
-0.406904212 0.885016884 4.449043798    O
2.812191833 1.335671628 0.118158847    O
1.437551167 3.854708372 5.130546153    O
-0.851882712 1.710173116 7.073396298    O
3.321706573 3.480206884 8.672718702    O
3.766685073 4.305363116 6.048366202    O
-1.296861212 0.885016884 9.697748798    O
0.992572667 3.930861628 7.754898653    O
1.477256333 1.259518372 7.991216347    O
1.922234833 1.335671628 5.366863847    O
0.547594167 3.854708372 10.379251153    O
