title                                   
   1.00000000000000     
    19.7953957952328032    0.0003535273660527    0.0000000000000000
     0.0002118753736347   11.8669161534838477    0.0000000000000000
     0.0000000000000000    0.0000000000000000    3.9600541363014066
   Nb   O    Sr   Ti
     2    45    15    13
Direct
  0.7002099004989637  0.4999364916146541  0.5000000001268887
  0.2997911371648152  0.8333978195124937  0.5000000001268887
 -0.0000018483677042  0.1666637830065311  0.5000000001268887
  0.1001399982904555  0.0001690940743371  0.5000000001268887
  0.1000058614649748  0.1668050745996685  0.0000000000000000
  0.2001388286688048  0.1664553113567205  0.5000000001268887
  0.3001013107095447  0.0002728926083743  0.5000000001268887
  0.3001391162885591  0.1667081900820215  0.0000000000000000
  0.4001229191655890  0.1663756270729856  0.5000000001268887
  0.4997244669581367  0.0001215013531611  0.5000000001268887
  0.4999996110385406  0.1666663624735323  0.0000000000000000
  0.5998755635895303  0.1669536277895283  0.5000000001268887
  0.6998675529320415  0.0000221435287244  0.5000000001268887
  0.6998576842861026  0.1666181450639714  0.0000000000000000
  0.7998584987854243  0.1668725985220164  0.5000000001268887
  0.9000683709509127  0.0000408444410284  0.5000000001268887
  0.8999912028065320  0.1665236190059648  0.0000000000000000
  0.0002866665224401  0.4998010489605220  0.5000000001268887
  0.0999265744922141  0.3332923175020784  0.5000000001268887
  0.1002091569829533  0.4998394402462030  0.0000000000000000
  0.2001227702394573  0.5001549285008440  0.5000000001268887
  0.3001304194528135  0.3333114272981839  0.5000000001268887
  0.2999513976152078  0.4999287723760720  0.0000000000000000
  0.3998859156805919  0.5001945557320020  0.5000000001268887
  0.5002769748523486  0.3332129892533949  0.5000000001268887
  0.4997343397270737  0.4999506710767229  0.0000000000000000
  0.5997601531323603  0.4999041497005979  0.5000000001268887
  0.6998960227665350  0.3330636521946279  0.5000000001268887
  0.6999326948742953  0.5000241884358331  0.0000000000000000
  0.8002208551401560  0.4999481766477211  0.5000000001268887
  0.8998554780485774  0.3331645839327852  0.5000000001268887
  0.9003272895054339  0.4999711769613970  0.0000000000000000
 -0.0002893692506699  0.8335344613437918  0.5000000001268887
  0.1001101778728665  0.6665419399731597  0.5000000001268887
  0.0996706311862125  0.8333635998043016  0.0000000000000000
  0.1997757576334248  0.8333900506228126  0.5000000001268887
  0.3001455763443567  0.6663946297108467  0.5000000001268887
  0.3000647212131300  0.8333121332929503  0.0000000000000000
  0.4002398059130946  0.8334317554607603  0.5000000001268887
  0.5000006270352936  0.6666663494771454  0.5000000001268887
  0.5002659127336441  0.8333845948708699  0.0000000000000000
  0.6001136047459675  0.8331404844084471  0.5000000001268887
  0.6998511370770167  0.6669363811922205  0.5000000001268887
  0.7000471899942706  0.8334081944831995  0.0000000000000000
  0.7998761178317109  0.8331793439253264  0.5000000001268887
  0.8998861470517922  0.6667910851053850  0.5000000001268887
  0.8997874967385231  0.8334967912465328  0.0000000000000000
 -0.0002691708290206  0.0003115689353251  0.0000000000000000
  0.1956327879197122  0.0061775955283967  0.0000000000000000
  0.4032822091113227  0.0063921724482192  0.0000000000000000
  0.6005314901261689  0.0005116712361943  0.0000000000000000
  0.8011102726472568  0.0001803819038584  0.0000000000000000
  0.0002712191290921  0.3330232705376509  0.0000000000000000
  0.1988920654583853  0.3331513664533937  0.0000000000000000
  0.3994753585885696  0.3328186804556552  0.0000000000000000
  0.5967242207511794  0.3269367163929016  0.0000000000000000
  0.8043692372009430  0.3271510237502989  0.0000000000000000
  0.0000019671038654  0.6666680854668665  0.0000000000000000
  0.1956280690554610  0.6606540702199033  0.0000000000000000
  0.4029589996371566  0.6607059647301318  0.0000000000000000
  0.5970493403252201  0.6726363002592447  0.0000000000000000
  0.8043740390309055  0.6726823835182615  0.0000000000000000
  0.0992045335614710  0.1673637265550939  0.5000000001268887
  0.2994252042568069  0.1691364962042744  0.5000000001268887
  0.5000025589927536  0.1666638922158542  0.5000000001268887
  0.7005797115727728  0.1641939897231006  0.5000000001268887
  0.9007982449076730  0.1659668952370742  0.5000000001268887
  0.0994373505298779  0.4991961414243956  0.5000000001268887
  0.2991083054861276  0.4974267008277860  0.5000000001268887
  0.4984940321595262  0.4991754873499747  0.5000000001268887
  0.9019508777673125  0.4999112059202855  0.5000000001268887
  0.0980487898492883  0.8334236668883719  0.5000000001268887
  0.5015081532359452  0.8341600607566195  0.5000000001268887
  0.7008937073176571  0.8359049741857204  0.5000000001268887
  0.9005640701403065  0.8341383659592697  0.5000000001268887
 
  0.00000000E+00  0.00000000E+00  0.00000000E+00
  0.00000000E+00  0.00000000E+00  0.00000000E+00
  0.00000000E+00  0.00000000E+00  0.00000000E+00
  0.00000000E+00  0.00000000E+00  0.00000000E+00
  0.00000000E+00  0.00000000E+00  0.00000000E+00
  0.00000000E+00  0.00000000E+00  0.00000000E+00
  0.00000000E+00  0.00000000E+00  0.00000000E+00
  0.00000000E+00  0.00000000E+00  0.00000000E+00
  0.00000000E+00  0.00000000E+00  0.00000000E+00
  0.00000000E+00  0.00000000E+00  0.00000000E+00
  0.00000000E+00  0.00000000E+00  0.00000000E+00
  0.00000000E+00  0.00000000E+00  0.00000000E+00
  0.00000000E+00  0.00000000E+00  0.00000000E+00
  0.00000000E+00  0.00000000E+00  0.00000000E+00
  0.00000000E+00  0.00000000E+00  0.00000000E+00
  0.00000000E+00  0.00000000E+00  0.00000000E+00
  0.00000000E+00  0.00000000E+00  0.00000000E+00
  0.00000000E+00  0.00000000E+00  0.00000000E+00
  0.00000000E+00  0.00000000E+00  0.00000000E+00
  0.00000000E+00  0.00000000E+00  0.00000000E+00
  0.00000000E+00  0.00000000E+00  0.00000000E+00
  0.00000000E+00  0.00000000E+00  0.00000000E+00
  0.00000000E+00  0.00000000E+00  0.00000000E+00
  0.00000000E+00  0.00000000E+00  0.00000000E+00
  0.00000000E+00  0.00000000E+00  0.00000000E+00
  0.00000000E+00  0.00000000E+00  0.00000000E+00
  0.00000000E+00  0.00000000E+00  0.00000000E+00
  0.00000000E+00  0.00000000E+00  0.00000000E+00
  0.00000000E+00  0.00000000E+00  0.00000000E+00
  0.00000000E+00  0.00000000E+00  0.00000000E+00
  0.00000000E+00  0.00000000E+00  0.00000000E+00
  0.00000000E+00  0.00000000E+00  0.00000000E+00
  0.00000000E+00  0.00000000E+00  0.00000000E+00
  0.00000000E+00  0.00000000E+00  0.00000000E+00
  0.00000000E+00  0.00000000E+00  0.00000000E+00
  0.00000000E+00  0.00000000E+00  0.00000000E+00
  0.00000000E+00  0.00000000E+00  0.00000000E+00
  0.00000000E+00  0.00000000E+00  0.00000000E+00
  0.00000000E+00  0.00000000E+00  0.00000000E+00
  0.00000000E+00  0.00000000E+00  0.00000000E+00
  0.00000000E+00  0.00000000E+00  0.00000000E+00
  0.00000000E+00  0.00000000E+00  0.00000000E+00
  0.00000000E+00  0.00000000E+00  0.00000000E+00
  0.00000000E+00  0.00000000E+00  0.00000000E+00
  0.00000000E+00  0.00000000E+00  0.00000000E+00
  0.00000000E+00  0.00000000E+00  0.00000000E+00
  0.00000000E+00  0.00000000E+00  0.00000000E+00
  0.00000000E+00  0.00000000E+00  0.00000000E+00
  0.00000000E+00  0.00000000E+00  0.00000000E+00
  0.00000000E+00  0.00000000E+00  0.00000000E+00
  0.00000000E+00  0.00000000E+00  0.00000000E+00
  0.00000000E+00  0.00000000E+00  0.00000000E+00
  0.00000000E+00  0.00000000E+00  0.00000000E+00
  0.00000000E+00  0.00000000E+00  0.00000000E+00
  0.00000000E+00  0.00000000E+00  0.00000000E+00
  0.00000000E+00  0.00000000E+00  0.00000000E+00
  0.00000000E+00  0.00000000E+00  0.00000000E+00
  0.00000000E+00  0.00000000E+00  0.00000000E+00
  0.00000000E+00  0.00000000E+00  0.00000000E+00
  0.00000000E+00  0.00000000E+00  0.00000000E+00
  0.00000000E+00  0.00000000E+00  0.00000000E+00
  0.00000000E+00  0.00000000E+00  0.00000000E+00
  0.00000000E+00  0.00000000E+00  0.00000000E+00
  0.00000000E+00  0.00000000E+00  0.00000000E+00
  0.00000000E+00  0.00000000E+00  0.00000000E+00
  0.00000000E+00  0.00000000E+00  0.00000000E+00
  0.00000000E+00  0.00000000E+00  0.00000000E+00
  0.00000000E+00  0.00000000E+00  0.00000000E+00
  0.00000000E+00  0.00000000E+00  0.00000000E+00
  0.00000000E+00  0.00000000E+00  0.00000000E+00
  0.00000000E+00  0.00000000E+00  0.00000000E+00
  0.00000000E+00  0.00000000E+00  0.00000000E+00
  0.00000000E+00  0.00000000E+00  0.00000000E+00
  0.00000000E+00  0.00000000E+00  0.00000000E+00
  0.00000000E+00  0.00000000E+00  0.00000000E+00
