title                                   
   1.00000000000000     
    19.9447603974717573    0.0046561849617260    0.0000000000000000
     0.0027925888860666   11.9652826931660208    0.0000000000000000
     0.0000000000000000    0.0000000000000000    3.9975574953312698
   Nb   O    Sr   Ti
     6    45    15     9
Direct
  0.3003275254402586  0.1648351244804566  0.5000000001268887
  0.6996690446452103  0.1685346462901204  0.5000000001268887
  0.0990434944744559  0.5000664718900452  0.5000000001268887
  0.3012745557819234  0.5014438434832134  0.5000000001268887
  0.6987067578194625  0.8318691093491967  0.5000000001268887
  0.9009671058709005  0.8332496139631520  0.5000000001268887
 -0.0000209101585090  0.1666224670203451  0.5000000001268887
  0.0998813684374878  0.0000121434499539  0.5000000001268887
  0.0997467208312238  0.1665666826892203  0.0000000000000000
  0.1995272403826390  0.1673991303667791  0.5000000001268887
  0.3003869878846973 -0.0012950301356017  0.5000000001268887
  0.2994153883948275  0.1660210381118626  0.0000000000000000
  0.4002242387251992  0.1676215502498577  0.5000000001268887
  0.4997958183433251 -0.0001417772599769  0.5000000001268887
  0.5000013554042969  0.1666853978425515  0.0000000000000000
  0.5998030134639295  0.1656339557279388  0.5000000001268887
  0.7002568806111970 -0.0002581051705116  0.5000000001268887
  0.7005822476832845  0.1673641388218589  0.0000000000000000
  0.8004528383006647  0.1658593939792394  0.5000000001268887
  0.8996967722323437  0.0005487289788495  0.5000000001268887
  0.9002482642902718  0.1668020642968593  0.0000000000000000
 -0.0011653010566424  0.5006627272693220  0.5000000001268887
  0.1002551830455252  0.3327299756763744  0.5000000001268887
  0.0992223262232268  0.4996042809269136  0.0000000000000000
  0.2000981973562498  0.4993494604344337  0.5000000001268887
  0.2997745677090476  0.3335553894953034  0.5000000001268887
  0.3008983414442762  0.5008529743561043  0.0000000000000000
  0.4012803774465313  0.4994327846248247  0.5000000001268887
  0.5002389921608302  0.3334473038820551  0.5000000001268887
  0.5009601397576582  0.4997812647724877  0.0000000000000000
  0.6002418259992154  0.5003271618009881  0.5000000001268887
  0.6996192550618442  0.3346212176876914  0.5000000001268887
  0.7000475101040601  0.5001957276137120  0.0000000000000000
  0.7995874762779304  0.5000069849152213  0.5000000001268887
  0.9000970055958646  0.3332708613248861  0.5000000001268887
  0.8989159468554060  0.4995222131023344  0.0000000000000000
  0.0011395502595171  0.8326990117969755  0.5000000001268887
  0.1000079085286563  0.6672019535508890  0.5000000001268887
  0.1010907207568372  0.8337979845288340  0.0000000000000000
  0.2004092686653397  0.8333384876736949  0.5000000001268887
  0.2998856676798259  0.6676864718948394  0.5000000001268887
  0.2999577104329800  0.8331377727615459  0.0000000000000000
  0.3997772765113353  0.8330419103437133  0.5000000001268887
  0.5000211882753518  0.6666990582342509  0.5000000001268887
  0.4990367501797489  0.8335344973669970  0.0000000000000000
  0.5987418703160223  0.8339588327958438  0.5000000001268887
  0.7001394167661552  0.6657090277207133  0.5000000001268887
  0.6990872865995545  0.8324378076426228  0.0000000000000000
  0.7998930696912657  0.8340293267078716  0.5000000001268887
  0.8999524973860358  0.6662091280001966  0.5000000001268887
  0.9007859693689449  0.8336994213742204  0.0000000000000000
  0.0039330453499576  0.0054791244534572  0.0000000000000000
  0.1973512118930989 -0.0057741777397889  0.0000000000000000
  0.4028166368594789 -0.0062188293200537  0.0000000000000000
  0.5920444038910833 -0.0003986779482263  0.0000000000000000
  0.8039647323425914  0.0072778850181743  0.0000000000000000
 -0.0038898098459918  0.3278634708937956  0.0000000000000000
  0.1960348401603830  0.3260543720868326  0.0000000000000000
  0.4079315846596930  0.3337330711852361  0.0000000000000000
  0.5971753919011559  0.3395571716903799  0.0000000000000000
  0.8026370590232577  0.3391160997181318  0.0000000000000000
  0.0000228087454573  0.6666769950304566  0.0000000000000000
  0.2010389730946849  0.6795303643285336  0.0000000000000000
  0.4034479891220455  0.6725146151172670  0.0000000000000000
  0.5965354718641165  0.6607915814143632  0.0000000000000000
  0.7989601586280815  0.6537973536072754  0.0000000000000000
  0.0988044545667838  0.1646517037149451  0.5000000001268887
  0.4999841761500683  0.1666853294520782  0.5000000001268887
  0.9012331755388158  0.1687625806021855  0.5000000001268887
  0.5011107805548469  0.5007728906913502  0.5000000001268887
  0.6993388065701069  0.4990102177996914  0.5000000001268887
  0.8991801070654886  0.4978451251782108  0.5000000001268887
  0.1008414703631497  0.8354692282010514  0.5000000001268887
  0.3006583369422606  0.8342929726886360  0.5000000001268887
  0.4988595537197515  0.8325277783613161  0.5000000001268887
 
  0.00000000E+00  0.00000000E+00  0.00000000E+00
  0.00000000E+00  0.00000000E+00  0.00000000E+00
  0.00000000E+00  0.00000000E+00  0.00000000E+00
  0.00000000E+00  0.00000000E+00  0.00000000E+00
  0.00000000E+00  0.00000000E+00  0.00000000E+00
  0.00000000E+00  0.00000000E+00  0.00000000E+00
  0.00000000E+00  0.00000000E+00  0.00000000E+00
  0.00000000E+00  0.00000000E+00  0.00000000E+00
  0.00000000E+00  0.00000000E+00  0.00000000E+00
  0.00000000E+00  0.00000000E+00  0.00000000E+00
  0.00000000E+00  0.00000000E+00  0.00000000E+00
  0.00000000E+00  0.00000000E+00  0.00000000E+00
  0.00000000E+00  0.00000000E+00  0.00000000E+00
  0.00000000E+00  0.00000000E+00  0.00000000E+00
  0.00000000E+00  0.00000000E+00  0.00000000E+00
  0.00000000E+00  0.00000000E+00  0.00000000E+00
  0.00000000E+00  0.00000000E+00  0.00000000E+00
  0.00000000E+00  0.00000000E+00  0.00000000E+00
  0.00000000E+00  0.00000000E+00  0.00000000E+00
  0.00000000E+00  0.00000000E+00  0.00000000E+00
  0.00000000E+00  0.00000000E+00  0.00000000E+00
  0.00000000E+00  0.00000000E+00  0.00000000E+00
  0.00000000E+00  0.00000000E+00  0.00000000E+00
  0.00000000E+00  0.00000000E+00  0.00000000E+00
  0.00000000E+00  0.00000000E+00  0.00000000E+00
  0.00000000E+00  0.00000000E+00  0.00000000E+00
  0.00000000E+00  0.00000000E+00  0.00000000E+00
  0.00000000E+00  0.00000000E+00  0.00000000E+00
  0.00000000E+00  0.00000000E+00  0.00000000E+00
  0.00000000E+00  0.00000000E+00  0.00000000E+00
  0.00000000E+00  0.00000000E+00  0.00000000E+00
  0.00000000E+00  0.00000000E+00  0.00000000E+00
  0.00000000E+00  0.00000000E+00  0.00000000E+00
  0.00000000E+00  0.00000000E+00  0.00000000E+00
  0.00000000E+00  0.00000000E+00  0.00000000E+00
  0.00000000E+00  0.00000000E+00  0.00000000E+00
  0.00000000E+00  0.00000000E+00  0.00000000E+00
  0.00000000E+00  0.00000000E+00  0.00000000E+00
  0.00000000E+00  0.00000000E+00  0.00000000E+00
  0.00000000E+00  0.00000000E+00  0.00000000E+00
  0.00000000E+00  0.00000000E+00  0.00000000E+00
  0.00000000E+00  0.00000000E+00  0.00000000E+00
  0.00000000E+00  0.00000000E+00  0.00000000E+00
  0.00000000E+00  0.00000000E+00  0.00000000E+00
  0.00000000E+00  0.00000000E+00  0.00000000E+00
  0.00000000E+00  0.00000000E+00  0.00000000E+00
  0.00000000E+00  0.00000000E+00  0.00000000E+00
  0.00000000E+00  0.00000000E+00  0.00000000E+00
  0.00000000E+00  0.00000000E+00  0.00000000E+00
  0.00000000E+00  0.00000000E+00  0.00000000E+00
  0.00000000E+00  0.00000000E+00  0.00000000E+00
  0.00000000E+00  0.00000000E+00  0.00000000E+00
  0.00000000E+00  0.00000000E+00  0.00000000E+00
  0.00000000E+00  0.00000000E+00  0.00000000E+00
  0.00000000E+00  0.00000000E+00  0.00000000E+00
  0.00000000E+00  0.00000000E+00  0.00000000E+00
  0.00000000E+00  0.00000000E+00  0.00000000E+00
  0.00000000E+00  0.00000000E+00  0.00000000E+00
  0.00000000E+00  0.00000000E+00  0.00000000E+00
  0.00000000E+00  0.00000000E+00  0.00000000E+00
  0.00000000E+00  0.00000000E+00  0.00000000E+00
  0.00000000E+00  0.00000000E+00  0.00000000E+00
  0.00000000E+00  0.00000000E+00  0.00000000E+00
  0.00000000E+00  0.00000000E+00  0.00000000E+00
  0.00000000E+00  0.00000000E+00  0.00000000E+00
  0.00000000E+00  0.00000000E+00  0.00000000E+00
  0.00000000E+00  0.00000000E+00  0.00000000E+00
  0.00000000E+00  0.00000000E+00  0.00000000E+00
  0.00000000E+00  0.00000000E+00  0.00000000E+00
  0.00000000E+00  0.00000000E+00  0.00000000E+00
  0.00000000E+00  0.00000000E+00  0.00000000E+00
  0.00000000E+00  0.00000000E+00  0.00000000E+00
  0.00000000E+00  0.00000000E+00  0.00000000E+00
  0.00000000E+00  0.00000000E+00  0.00000000E+00
  0.00000000E+00  0.00000000E+00  0.00000000E+00
