title
1.
18.485100000 0.000000000 0.000000000
0.000000000 10.673400000 0.000000000
0.000000000 0.000000000 19.210000000
5 36 13
Cartesian
7.188171441 1.778903558 11.410740000    Mo
7.188171441 5.336700000 11.410740000    Mo
10.257381990 0.000000000 11.410740000    Mo
10.257381990 3.557796442 11.410740000    Mo
10.257381990 7.115603558 11.410740000    Mo
6.160954434 0.000000000 9.601734300    Te
6.160954434 3.557796442 9.601734300    Te
6.160954434 7.115603558 9.601734300    Te
12.322666758 0.000000000 9.601734300    Te
12.322666758 3.557796442 9.601734300    Te
12.322666758 7.115603558 9.601734300    Te
18.484360596 0.000000000 9.601734300    Te
18.484360596 3.557796442 9.601734300    Te
18.484360596 7.115603558 9.601734300    Te
6.160954434 0.000000000 13.219745700    Te
6.160954434 3.557796442 13.219745700    Te
6.160954434 7.115603558 13.219745700    Te
12.322666758 0.000000000 13.219745700    Te
12.322666758 3.557796442 13.219745700    Te
12.322666758 7.115603558 13.219745700    Te
18.484360596 0.000000000 13.219745700    Te
18.484360596 3.557796442 13.219745700    Te
18.484360596 7.115603558 13.219745700    Te
3.080172213 1.778903558 9.600965900    Te
3.080172213 5.336700000 9.600965900    Te
3.080172213 8.894496442 9.600965900    Te
9.241866051 1.778903558 9.600965900    Te
9.241866051 5.336700000 9.600965900    Te
9.241866051 8.894496442 9.600965900    Te
15.403578375 1.778903558 9.600965900    Te
15.403578375 5.336700000 9.600965900    Te
15.403578375 8.894496442 9.600965900    Te
3.080172213 1.778903558 13.220514100    Te
3.080172213 5.336700000 13.220514100    Te
3.080172213 8.894496442 13.220514100    Te
9.241866051 1.778903558 13.220514100    Te
9.241866051 5.336700000 13.220514100    Te
9.241866051 8.894496442 13.220514100    Te
15.403578375 1.778903558 13.220514100    Te
15.403578375 5.336700000 13.220514100    Te
15.403578375 8.894496442 13.220514100    Te
1.026477603 1.778903558 11.410740000    Zr
1.026477603 5.336700000 11.410740000    Zr
1.026477603 8.894496442 11.410740000    Zr
7.188171441 8.894496442 11.410740000    Zr
13.349883765 1.778903558 11.410740000    Zr
13.349883765 5.336700000 11.410740000    Zr
13.349883765 8.894496442 11.410740000    Zr
4.095688152 0.000000000 11.410740000    Zr
4.095688152 3.557796442 11.410740000    Zr
4.095688152 7.115603558 11.410740000    Zr
16.419075828 0.000000000 11.410740000    Zr
16.419075828 3.557796442 11.410740000    Zr
16.419075828 7.115603558 11.410740000    Zr
