title
1.
-5.139700000 0.000000000 0.000000000
0.000000000 5.190380000 0.000000000
0.889957000 0.000000000 -5.248705000
4 6
Cartesian
-3.016871861 0.221265899 -4.157614702    Hf_pv
-1.232871139 4.969114101 -1.091090298    Hf_pv
-0.787892639 2.816455899 -3.715442798    Hf_pv
-3.461850361 2.373924101 -1.533262202    Hf_pv
-4.211668712 1.710173116 -3.424013702    O
-0.038079427 3.480206884 -1.824691298    O
0.406899073 4.305363116 -4.449043798    O
-1.882529667 1.259518372 -2.506193653    O
-1.437551167 1.335671628 -5.130546153    O
-2.812191833 3.854708372 -0.118158847    O
