title                                   
   1.00000000000000     
     0.0000000000000000    3.9816256489518351   -7.9611659946249107
     0.0000000000000000   -7.9611659946249107    3.9816256489518351
    -3.9888857915937255    0.0000000000000000    0.0000000000000000
   Nb   O    Sr   Ti
     1     9     3     2
Direct
  0.1666666666666643  0.8333333333333357  0.5000000000000000
  0.1666666666666643  0.8333333333333357  0.0000000000000000
 -0.0017201807774101  0.4982720654831093  0.5000000000000000
  0.8316053988164449  0.6649464858892544  0.5000000000000000
  0.8338811184625419  0.1661188815374580  0.0000000000000000
  0.6666666666666643  0.8333333333333357  0.5000000000000000
  0.5017279345168908  0.0017201807774101  0.5000000000000000
  0.4994522148707939  0.5005477851292063  0.0000000000000000
  0.3350535141107457  0.1683946011835551  0.5000000000000000
  0.1666666666666643  0.3333333333333357  0.5000000000000000
  0.6666666666666643  0.3333333333333357  0.0000000000000000
  0.3392342562194545  0.6607657437805455  0.0000000000000000
 -0.0059009228861187  0.0059009228861187  0.0000000000000000
  0.8347668461345583  0.1652331538654418  0.5000000000000000
  0.4985664871987774  0.5014335128012226  0.5000000000000000
 
  0.00000000E+00  0.00000000E+00  0.00000000E+00
  0.00000000E+00  0.00000000E+00  0.00000000E+00
  0.00000000E+00  0.00000000E+00  0.00000000E+00
  0.00000000E+00  0.00000000E+00  0.00000000E+00
  0.00000000E+00  0.00000000E+00  0.00000000E+00
  0.00000000E+00  0.00000000E+00  0.00000000E+00
  0.00000000E+00  0.00000000E+00  0.00000000E+00
  0.00000000E+00  0.00000000E+00  0.00000000E+00
  0.00000000E+00  0.00000000E+00  0.00000000E+00
  0.00000000E+00  0.00000000E+00  0.00000000E+00
  0.00000000E+00  0.00000000E+00  0.00000000E+00
  0.00000000E+00  0.00000000E+00  0.00000000E+00
  0.00000000E+00  0.00000000E+00  0.00000000E+00
  0.00000000E+00  0.00000000E+00  0.00000000E+00
  0.00000000E+00  0.00000000E+00  0.00000000E+00
