title                                   
   1.00000000000000     
    19.7541113995639570    0.0000000000000000    0.0000000000000000
     0.0000000000000000   11.8449973493609804    0.0000000000000000
     0.0000000000000000    0.0000000000000000    3.9496191196027302
   Nb   O    Sr   Ti
     1    45    15    14
Direct
  0.6999999880066596  0.5000000000000000  0.5000000001268887
 -0.0000675470846531  0.1665188581554078  0.5000000001268887
  0.1000056617563263 -0.0000000000000000  0.5000000001268887
  0.0999574762807114  0.1666517783660409 -0.0000000000000000
  0.2000000030046820  0.1666256450116832  0.5000000001268887
  0.2999943512571844 -0.0000000000000000  0.5000000001268887
  0.3000425367327992  0.1666517783660409 -0.0000000000000000
  0.4000675530940100  0.1665188581554078  0.5000000001268887
  0.4999403296011746 -0.0000000000000000  0.5000000001268887
  0.4999716285452218  0.1664581621247011  0.0000000000000000
  0.6000709097140365  0.1668176049477867  0.5000000001268887
  0.6999999880066596 -0.0000000000000000  0.5000000001268887
  0.6999999880066596  0.1666061802373988 -0.0000000000000000
  0.7999291262913651  0.1668176049477867  0.5000000001268887
  0.9000596464121446 -0.0000000000000000  0.5000000001268887
  0.9000283474680976  0.1664581621247011 -0.0000000000000000
  0.0000337255528778  0.5000000000000000  0.5000000001268887
  0.0999462420684230  0.3333197175196272  0.5000000001268887
  0.1000375088540364  0.5000000000000000 -0.0000000000000000
  0.2000000030046820  0.5000000000000000  0.5000000001268887
  0.3000537709450876  0.3333197175196272  0.5000000001268887
  0.2999625041594743  0.5000000000000000 -0.0000000000000000
  0.3999662804564792  0.5000000000000000  0.5000000001268887
  0.5001709707409518  0.3332224688901975  0.5000000001268887
  0.5000862344143170  0.5000000000000000 -0.0000000000000000
  0.6000339316095646  0.5000000000000000  0.5000000001268887
  0.6999999880066596  0.3330270531510276  0.5000000001268887
  0.6999999880066596  0.5000000000000000 -0.0000000000000000
  0.7999661043958370  0.5000000000000000  0.5000000001268887
  0.8998290052723674  0.3332224688901975  0.5000000001268887
  0.8999137415990023  0.5000000000000000 -0.0000000000000000
 -0.0000675470846531  0.8334811128299063  0.5000000001268887
  0.0999462420684230  0.6666803114950586  0.5000000001268887
  0.0999574762807114  0.8333481926192733  0.0000000000000000
  0.2000000030046820  0.8333743259736311  0.5000000001268887
  0.3000537709450876  0.6666803114950586  0.5000000001268887
  0.3000425367327992  0.8333481926192733 -0.0000000000000000
  0.4000675530940100  0.8334811128299063  0.5000000001268887
  0.5001709707409518  0.6667775601244880  0.5000000001268887
  0.4999716285452218  0.8335418088606130 -0.0000000000000000
  0.6000709097140365  0.8331823660375275  0.5000000001268887
  0.6999999880066596  0.6669729758636583  0.5000000001268887
  0.6999999880066596  0.8333937907479154 -0.0000000000000000
  0.7999291262913651  0.8331823660375275  0.5000000001268887
  0.8998290052723674  0.6667775601244880  0.5000000001268887
  0.9000283474680976  0.8335418088606130 -0.0000000000000000
  0.0011763841222775 -0.0000000000000000 -0.0000000000000000
  0.2000000030046820 -0.0000000000000000 -0.0000000000000000
  0.3988236218870793 -0.0000000000000000 -0.0000000000000000
  0.5989510810399635 -0.0000000000000000 -0.0000000000000000
  0.8010489549654382 -0.0000000000000000 -0.0000000000000000
  0.0015457199178736  0.3326747630422389 -0.0000000000000000
  0.2000000030046820  0.3329213204617104 -0.0000000000000000
  0.3984542860914834  0.3326747630422389 -0.0000000000000000
  0.5956155101589833  0.3270145698923071 -0.0000000000000000
  0.8043845258464184  0.3270145698923071 -0.0000000000000000
  0.0015457199178736  0.6673252659724471 -0.0000000000000000
  0.2000000030046820  0.6670787085529755 -0.0000000000000000
  0.3984542860914834  0.6673252659724471 -0.0000000000000000
  0.5956155101589833  0.6729854591223789 -0.0000000000000000
  0.8043845258464184  0.6729854591223789 -0.0000000000000000
  0.1005379570865361  0.1665402732906833  0.5000000001268887
  0.2994620559269746  0.1665402732906833  0.5000000001268887
  0.4986798194058087  0.1658389487401813  0.5000000001268887
  0.6999999880066596  0.1640004669362746  0.5000000001268887
  0.9013201566075109  0.1658389487401813  0.5000000001268887
  0.1009592854109319  0.5000000000000000  0.5000000001268887
  0.2990407276025786  0.5000000000000000  0.5000000001268887
  0.4971160446188113  0.5000000000000000  0.5000000001268887
  0.9028839313945078  0.5000000000000000  0.5000000001268887
  0.1005379570865361  0.8334596976946308  0.5000000001268887
  0.2994620559269746  0.8334596976946308  0.5000000001268887
  0.4986798194058087  0.8341610222451328  0.5000000001268887
  0.6999999880066596  0.8359995040490397  0.5000000001268887
  0.9013201566075109  0.8341610222451328  0.5000000001268887
 
  0.00000000E+00  0.00000000E+00  0.00000000E+00
  0.00000000E+00  0.00000000E+00  0.00000000E+00
  0.00000000E+00  0.00000000E+00  0.00000000E+00
  0.00000000E+00  0.00000000E+00  0.00000000E+00
  0.00000000E+00  0.00000000E+00  0.00000000E+00
  0.00000000E+00  0.00000000E+00  0.00000000E+00
  0.00000000E+00  0.00000000E+00  0.00000000E+00
  0.00000000E+00  0.00000000E+00  0.00000000E+00
  0.00000000E+00  0.00000000E+00  0.00000000E+00
  0.00000000E+00  0.00000000E+00  0.00000000E+00
  0.00000000E+00  0.00000000E+00  0.00000000E+00
  0.00000000E+00  0.00000000E+00  0.00000000E+00
  0.00000000E+00  0.00000000E+00  0.00000000E+00
  0.00000000E+00  0.00000000E+00  0.00000000E+00
  0.00000000E+00  0.00000000E+00  0.00000000E+00
  0.00000000E+00  0.00000000E+00  0.00000000E+00
  0.00000000E+00  0.00000000E+00  0.00000000E+00
  0.00000000E+00  0.00000000E+00  0.00000000E+00
  0.00000000E+00  0.00000000E+00  0.00000000E+00
  0.00000000E+00  0.00000000E+00  0.00000000E+00
  0.00000000E+00  0.00000000E+00  0.00000000E+00
  0.00000000E+00  0.00000000E+00  0.00000000E+00
  0.00000000E+00  0.00000000E+00  0.00000000E+00
  0.00000000E+00  0.00000000E+00  0.00000000E+00
  0.00000000E+00  0.00000000E+00  0.00000000E+00
  0.00000000E+00  0.00000000E+00  0.00000000E+00
  0.00000000E+00  0.00000000E+00  0.00000000E+00
  0.00000000E+00  0.00000000E+00  0.00000000E+00
  0.00000000E+00  0.00000000E+00  0.00000000E+00
  0.00000000E+00  0.00000000E+00  0.00000000E+00
  0.00000000E+00  0.00000000E+00  0.00000000E+00
  0.00000000E+00  0.00000000E+00  0.00000000E+00
  0.00000000E+00  0.00000000E+00  0.00000000E+00
  0.00000000E+00  0.00000000E+00  0.00000000E+00
  0.00000000E+00  0.00000000E+00  0.00000000E+00
  0.00000000E+00  0.00000000E+00  0.00000000E+00
  0.00000000E+00  0.00000000E+00  0.00000000E+00
  0.00000000E+00  0.00000000E+00  0.00000000E+00
  0.00000000E+00  0.00000000E+00  0.00000000E+00
  0.00000000E+00  0.00000000E+00  0.00000000E+00
  0.00000000E+00  0.00000000E+00  0.00000000E+00
  0.00000000E+00  0.00000000E+00  0.00000000E+00
  0.00000000E+00  0.00000000E+00  0.00000000E+00
  0.00000000E+00  0.00000000E+00  0.00000000E+00
  0.00000000E+00  0.00000000E+00  0.00000000E+00
  0.00000000E+00  0.00000000E+00  0.00000000E+00
  0.00000000E+00  0.00000000E+00  0.00000000E+00
  0.00000000E+00  0.00000000E+00  0.00000000E+00
  0.00000000E+00  0.00000000E+00  0.00000000E+00
  0.00000000E+00  0.00000000E+00  0.00000000E+00
  0.00000000E+00  0.00000000E+00  0.00000000E+00
  0.00000000E+00  0.00000000E+00  0.00000000E+00
  0.00000000E+00  0.00000000E+00  0.00000000E+00
  0.00000000E+00  0.00000000E+00  0.00000000E+00
  0.00000000E+00  0.00000000E+00  0.00000000E+00
  0.00000000E+00  0.00000000E+00  0.00000000E+00
  0.00000000E+00  0.00000000E+00  0.00000000E+00
  0.00000000E+00  0.00000000E+00  0.00000000E+00
  0.00000000E+00  0.00000000E+00  0.00000000E+00
  0.00000000E+00  0.00000000E+00  0.00000000E+00
  0.00000000E+00  0.00000000E+00  0.00000000E+00
  0.00000000E+00  0.00000000E+00  0.00000000E+00
  0.00000000E+00  0.00000000E+00  0.00000000E+00
  0.00000000E+00  0.00000000E+00  0.00000000E+00
  0.00000000E+00  0.00000000E+00  0.00000000E+00
  0.00000000E+00  0.00000000E+00  0.00000000E+00
  0.00000000E+00  0.00000000E+00  0.00000000E+00
  0.00000000E+00  0.00000000E+00  0.00000000E+00
  0.00000000E+00  0.00000000E+00  0.00000000E+00
  0.00000000E+00  0.00000000E+00  0.00000000E+00
  0.00000000E+00  0.00000000E+00  0.00000000E+00
  0.00000000E+00  0.00000000E+00  0.00000000E+00
  0.00000000E+00  0.00000000E+00  0.00000000E+00
  0.00000000E+00  0.00000000E+00  0.00000000E+00
  0.00000000E+00  0.00000000E+00  0.00000000E+00
