title                                   
   1.00000000000000     
    20.0495996607146374    0.0000000000000000    0.0000000000000000
     0.0000000000000000   12.0617673786878186    0.0000000000000000
     0.0000000000000000    0.0000000000000000    4.0155204017484802
   Nb   O    Sr   Ti
     9    45    15     6
Direct
  0.1000000010201703  0.1666883438431682  0.5000000001268887
  0.4982336152590960  0.1668502818244201  0.5000000001268887
  0.7017663727729443  0.1668502818244201  0.5000000001268887
  0.1000000010201703  0.5000000000000000  0.5000000001268887
  0.4983415064227729  0.5000000000000000  0.5000000001268887
  0.7016584816092672  0.5000000000000000  0.5000000001268887
  0.1000000010201703  0.8333116271421461  0.5000000001268887
  0.4982336152590960  0.8331496891608940  0.5000000001268887
  0.7017663727729443  0.8331496891608940  0.5000000001268887
 -0.0000357590647639  0.1666458294590691  0.5000000001268887
  0.1000000010201703  0.0000000000000000  0.5000000001268887
  0.1000000010201703  0.1666913751456207  0.0000000000000000
  0.2000357620694460  0.1666458294590691  0.5000000001268887
  0.2992407234298767  0.0000000000000000  0.5000000001268887
  0.2993225638939616  0.1667093096880122  0.0000000000000000
  0.3984951615201907  0.1664826104334617  0.5000000001268887
  0.5000013116186013  0.0000000000000000  0.5000000001268887
  0.4998923734519838  0.1667666510921837  0.0000000000000000
  0.6000000239866807  0.1665971160513431  0.5000000001268887
  0.6999986764134387  0.0000000000000000  0.5000000001268887
  0.7001076145800563  0.1667666510921837 -0.0000000000000000
  0.8015048565078869  0.1664826104334617  0.5000000001268887
  0.9007592645514025  0.0000000000000000  0.5000000001268887
  0.9006774240873175  0.1667093096880122  0.0000000000000000
 -0.0000307057476288  0.5000000000000000  0.5000000001268887
  0.1000000010201703  0.3332933263773060  0.5000000001268887
  0.1000000010201703  0.5000000000000000  0.0000000000000000
  0.2000307087523109  0.5000000000000000  0.5000000001268887
  0.2993028272899087  0.3331714205696083  0.5000000001268887
  0.2993416735094100  0.5000000000000000  0.0000000000000000
  0.3984169281238084  0.5000000000000000  0.5000000001268887
  0.4998429501795326  0.3331592450029420  0.5000000001268887
  0.4999747705219115  0.5000000000000000  0.0000000000000000
  0.6000000239866807  0.5000000000000000  0.5000000001268887
  0.7001570378525077  0.3331592450029420  0.5000000001268887
  0.7000252175101286  0.5000000000000000  0.0000000000000000
  0.8015830899042692  0.5000000000000000  0.5000000001268887
  0.9006971606913704  0.3331714205696083  0.5000000001268887
  0.9006583144718693  0.5000000000000000  0.0000000000000000
 -0.0000357590647639  0.8333541415262451  0.5000000001268887
  0.1000000010201703  0.6667067026373799  0.5000000001268887
  0.1000000010201703  0.8333085958396937  0.0000000000000000
  0.2000357620694460  0.8333541415262451  0.5000000001268887
  0.2993028272899087  0.6668286084450775  0.5000000001268887
  0.2993225638939616  0.8332906612973020  0.0000000000000000
  0.3984951615201907  0.8335173605518524  0.5000000001268887
  0.4998429501795326  0.6668407840117438  0.5000000001268887
  0.4998923734519838  0.8332333198931308 -0.0000000000000000
  0.6000000239866807  0.8334028549339710  0.5000000001268887
  0.7001570378525077  0.6668407840117438  0.5000000001268887
  0.7001076145800563  0.8332333198931308 -0.0000000000000000
  0.8015048565078869  0.8335173605518524  0.5000000001268887
  0.9006971606913704  0.6668286084450775  0.5000000001268887
  0.9006774240873175  0.8332906612973020  0.0000000000000000
 -0.0055582385884345  0.0000000000000000  0.0000000000000000
  0.2055582415931164  0.0000000000000000  0.0000000000000000
  0.3913612312808633  0.0000000000000000  0.0000000000000000
  0.6000000239866807  0.0000000000000000  0.0000000000000000
  0.8086387867472146  0.0000000000000000  0.0000000000000000
 -0.0055408313400819  0.3334178182055151  0.0000000000000000
  0.2055408343447639  0.3334178182055151  0.0000000000000000
  0.3913980151941446  0.3334424140294045  0.0000000000000000
  0.6000000239866807  0.3334158695239776  0.0000000000000000
  0.8086020028339331  0.3334424140294045  0.0000000000000000
 -0.0055408313400819  0.6665822108091706  0.0000000000000000
  0.2055408343447639  0.6665822108091706  0.0000000000000000
  0.3913980151941446  0.6665576149852814  0.0000000000000000
  0.6000000239866807  0.6665841594907083  0.0000000000000000
  0.8086020028339331  0.6665576149852814  0.0000000000000000
  0.2992072262050313  0.1667526187553146  0.5000000001268887
  0.9007927617762480  0.1667526187553146  0.5000000001268887
  0.2993569745401144  0.5000000000000000  0.5000000001268887
  0.9006430134411648  0.5000000000000000  0.5000000001268887
  0.2992072262050313  0.8332473522299997  0.5000000001268887
  0.9007927617762480  0.8332473522299997  0.5000000001268887
 
  0.00000000E+00  0.00000000E+00  0.00000000E+00
  0.00000000E+00  0.00000000E+00  0.00000000E+00
  0.00000000E+00  0.00000000E+00  0.00000000E+00
  0.00000000E+00  0.00000000E+00  0.00000000E+00
  0.00000000E+00  0.00000000E+00  0.00000000E+00
  0.00000000E+00  0.00000000E+00  0.00000000E+00
  0.00000000E+00  0.00000000E+00  0.00000000E+00
  0.00000000E+00  0.00000000E+00  0.00000000E+00
  0.00000000E+00  0.00000000E+00  0.00000000E+00
  0.00000000E+00  0.00000000E+00  0.00000000E+00
  0.00000000E+00  0.00000000E+00  0.00000000E+00
  0.00000000E+00  0.00000000E+00  0.00000000E+00
  0.00000000E+00  0.00000000E+00  0.00000000E+00
  0.00000000E+00  0.00000000E+00  0.00000000E+00
  0.00000000E+00  0.00000000E+00  0.00000000E+00
  0.00000000E+00  0.00000000E+00  0.00000000E+00
  0.00000000E+00  0.00000000E+00  0.00000000E+00
  0.00000000E+00  0.00000000E+00  0.00000000E+00
  0.00000000E+00  0.00000000E+00  0.00000000E+00
  0.00000000E+00  0.00000000E+00  0.00000000E+00
  0.00000000E+00  0.00000000E+00  0.00000000E+00
  0.00000000E+00  0.00000000E+00  0.00000000E+00
  0.00000000E+00  0.00000000E+00  0.00000000E+00
  0.00000000E+00  0.00000000E+00  0.00000000E+00
  0.00000000E+00  0.00000000E+00  0.00000000E+00
  0.00000000E+00  0.00000000E+00  0.00000000E+00
  0.00000000E+00  0.00000000E+00  0.00000000E+00
  0.00000000E+00  0.00000000E+00  0.00000000E+00
  0.00000000E+00  0.00000000E+00  0.00000000E+00
  0.00000000E+00  0.00000000E+00  0.00000000E+00
  0.00000000E+00  0.00000000E+00  0.00000000E+00
  0.00000000E+00  0.00000000E+00  0.00000000E+00
  0.00000000E+00  0.00000000E+00  0.00000000E+00
  0.00000000E+00  0.00000000E+00  0.00000000E+00
  0.00000000E+00  0.00000000E+00  0.00000000E+00
  0.00000000E+00  0.00000000E+00  0.00000000E+00
  0.00000000E+00  0.00000000E+00  0.00000000E+00
  0.00000000E+00  0.00000000E+00  0.00000000E+00
  0.00000000E+00  0.00000000E+00  0.00000000E+00
  0.00000000E+00  0.00000000E+00  0.00000000E+00
  0.00000000E+00  0.00000000E+00  0.00000000E+00
  0.00000000E+00  0.00000000E+00  0.00000000E+00
  0.00000000E+00  0.00000000E+00  0.00000000E+00
  0.00000000E+00  0.00000000E+00  0.00000000E+00
  0.00000000E+00  0.00000000E+00  0.00000000E+00
  0.00000000E+00  0.00000000E+00  0.00000000E+00
  0.00000000E+00  0.00000000E+00  0.00000000E+00
  0.00000000E+00  0.00000000E+00  0.00000000E+00
  0.00000000E+00  0.00000000E+00  0.00000000E+00
  0.00000000E+00  0.00000000E+00  0.00000000E+00
  0.00000000E+00  0.00000000E+00  0.00000000E+00
  0.00000000E+00  0.00000000E+00  0.00000000E+00
  0.00000000E+00  0.00000000E+00  0.00000000E+00
  0.00000000E+00  0.00000000E+00  0.00000000E+00
  0.00000000E+00  0.00000000E+00  0.00000000E+00
  0.00000000E+00  0.00000000E+00  0.00000000E+00
  0.00000000E+00  0.00000000E+00  0.00000000E+00
  0.00000000E+00  0.00000000E+00  0.00000000E+00
  0.00000000E+00  0.00000000E+00  0.00000000E+00
  0.00000000E+00  0.00000000E+00  0.00000000E+00
  0.00000000E+00  0.00000000E+00  0.00000000E+00
  0.00000000E+00  0.00000000E+00  0.00000000E+00
  0.00000000E+00  0.00000000E+00  0.00000000E+00
  0.00000000E+00  0.00000000E+00  0.00000000E+00
  0.00000000E+00  0.00000000E+00  0.00000000E+00
  0.00000000E+00  0.00000000E+00  0.00000000E+00
  0.00000000E+00  0.00000000E+00  0.00000000E+00
  0.00000000E+00  0.00000000E+00  0.00000000E+00
  0.00000000E+00  0.00000000E+00  0.00000000E+00
  0.00000000E+00  0.00000000E+00  0.00000000E+00
  0.00000000E+00  0.00000000E+00  0.00000000E+00
  0.00000000E+00  0.00000000E+00  0.00000000E+00
  0.00000000E+00  0.00000000E+00  0.00000000E+00
  0.00000000E+00  0.00000000E+00  0.00000000E+00
  0.00000000E+00  0.00000000E+00  0.00000000E+00
