title
1.
19.702600479 0.000000000 0.000000000
0.000000000 11.821599960 0.000000000
0.000000000 0.000000000 3.940500021
9 45 15 6
Cartesian
1.970260068 1.970306006 1.970250011    Nb_sv
9.851300240 1.970306006 1.970250011    Nb_sv
13.791820099 1.970306006 1.970250011    Nb_sv
1.970260068 5.910799980 1.970250011    Nb_sv
9.851300240 5.910799980 1.970250011    Nb_sv
13.791820099 5.910799980 1.970250011    Nb_sv
1.970260068 9.851293611 1.970250011    Nb_sv
9.851300240 9.851293611 1.970250011    Nb_sv
13.791820099 9.851293611 1.970250011    Nb_sv
0.000000000 1.970306006 1.970250011    O
1.970260068 0.000000000 1.970250011    O
1.970260068 1.970306006 0.000000000    O
3.940520155 1.970306006 1.970250011    O
5.910780380 0.000000000 1.970250011    O
5.910780380 1.970306006 0.000000000    O
7.881040310 1.970306006 1.970250011    O
9.851300240 0.000000000 1.970250011    O
9.851300240 1.970306006 0.000000000    O
11.821560760 1.970306006 1.970250011    O
13.791820099 0.000000000 1.970250011    O
13.791820099 1.970306006 0.000000000    O
15.762080620 1.970306006 1.970250011    O
17.732339958 0.000000000 1.970250011    O
17.732339958 1.970306006 0.000000000    O
0.000000000 5.910799980 1.970250011    O
1.970260068 3.940493974 1.970250011    O
1.970260068 5.910799980 0.000000000    O
3.940520155 5.910799980 1.970250011    O
5.910780380 3.940493974 1.970250011    O
5.910780380 5.910799980 0.000000000    O
7.881040310 5.910799980 1.970250011    O
9.851300240 3.940493974 1.970250011    O
9.851300240 5.910799980 0.000000000    O
11.821560760 5.910799980 1.970250011    O
13.791820099 3.940493974 1.970250011    O
13.791820099 5.910799980 0.000000000    O
15.762080620 5.910799980 1.970250011    O
17.732339958 3.940493974 1.970250011    O
17.732339958 5.910799980 0.000000000    O
0.000000000 9.851293611 1.970250011    O
1.970260068 7.881106329 1.970250011    O
1.970260068 9.851293611 0.000000000    O
3.940520155 9.851293611 1.970250011    O
5.910780380 7.881106329 1.970250011    O
5.910780380 9.851293611 0.000000000    O
7.881040310 9.851293611 1.970250011    O
9.851300240 7.881106329 1.970250011    O
9.851300240 9.851293611 0.000000000    O
11.821560760 9.851293611 1.970250011    O
13.791820099 7.881106329 1.970250011    O
13.791820099 9.851293611 0.000000000    O
15.762080620 9.851293611 1.970250011    O
17.732339958 7.881106329 1.970250011    O
17.732339958 9.851293611 0.000000000    O
0.000000000 0.000000000 0.000000000    Sr_sv
3.940520155 0.000000000 0.000000000    Sr_sv
7.881040310 0.000000000 0.000000000    Sr_sv
11.821560760 0.000000000 0.000000000    Sr_sv
15.762080620 0.000000000 0.000000000    Sr_sv
0.000000000 3.940493974 0.000000000    Sr_sv
3.940520155 3.940493974 0.000000000    Sr_sv
7.881040310 3.940493974 0.000000000    Sr_sv
11.821560760 3.940493974 0.000000000    Sr_sv
15.762080620 3.940493974 0.000000000    Sr_sv
0.000000000 7.881106329 0.000000000    Sr_sv
3.940520155 7.881106329 0.000000000    Sr_sv
7.881040310 7.881106329 0.000000000    Sr_sv
11.821560760 7.881106329 0.000000000    Sr_sv
15.762080620 7.881106329 0.000000000    Sr_sv
5.910780380 1.970306006 1.970250011    Ti_sv
17.732339958 1.970306006 1.970250011    Ti_sv
5.910780380 5.910799980 1.970250011    Ti_sv
17.732339958 5.910799980 1.970250011    Ti_sv
5.910780380 9.851293611 1.970250011    Ti_sv
17.732339958 9.851293611 1.970250011    Ti_sv
