title                                   
   1.00000000000000     
    19.9812761420905076    0.0000000000000000    0.0000000000000000
     0.0000000000000000   12.0003693348821567    0.0000000000000000
     0.0000000000000000    0.0000000000000000    4.0027239408729542
   Nb   O    Sr   Ti
     7    45    15     8
Direct
  0.0987440186809986  0.1685480909440042  0.5000000001268887
  0.3012559943325119  0.1685480909440042  0.5000000001268887
  0.6999999880066596  0.1667460418213617  0.5000000001268887
  0.6999999880066596  0.5000000000000000  0.5000000001268887
  0.0987440186809986  0.8314518800413102  0.5000000001268887
  0.3012559943325119  0.8314518800413102  0.5000000001268887
  0.6999999880066596  0.8332539291639528  0.5000000001268887
 -0.0009772144393639  0.1666232686198572  0.5000000001268887
  0.1001971904588408  0.0000000000000000  0.5000000001268887
  0.0996968212523488  0.1668754168612297  0.0000000000000000
  0.2000000030046820  0.1659857471911979  0.5000000001268887
  0.2998028225546700  0.0000000000000000  0.5000000001268887
  0.3003031917611618  0.1668754168612297  0.0000000000000000
  0.4009772204487208  0.1666232686198572  0.5000000001268887
  0.5000986409065705  0.0000000000000000  0.5000000001268887
  0.5004621217020180  0.1663764467113697 -0.0000000000000000
  0.5998012056312679  0.1671663858609821  0.5000000001268887
  0.6999999880066596  0.0000000000000000  0.5000000001268887
  0.6999999880066596  0.1665703796884184  0.0000000000000000
  0.8001988303741338  0.1671663858609821  0.5000000001268887
  0.8999013351067487  0.0000000000000000  0.5000000001268887
  0.8995378543113013  0.1663764467113697 -0.0000000000000000
  0.0001606759043599  0.5000000000000000  0.5000000001268887
  0.0999099982225020  0.3347331129634580  0.5000000001268887
  0.1003247787949181  0.5000000000000000  0.0000000000000000
  0.2000000030046820  0.5000000000000000  0.5000000001268887
  0.3000900147910087  0.3347331129634580  0.5000000001268887
  0.2996752342185926  0.5000000000000000  0.0000000000000000
  0.3998393301049970  0.5000000000000000  0.5000000001268887
  0.5001232141444013  0.3337334071978874  0.5000000001268887
  0.4995267480625943  0.5000000000000000  0.0000000000000000
  0.5993948065308202  0.5000000000000000  0.5000000001268887
  0.6999999880066596  0.3335129201065513  0.5000000001268887
  0.6999999880066596  0.5000000000000000  0.0000000000000000
  0.8006052294745815  0.5000000000000000  0.5000000001268887
  0.8998767618689180  0.3337334071978874  0.5000000001268887
  0.9004732279507248  0.5000000000000000  0.0000000000000000
 -0.0009772144393639  0.8333767023654570  0.5000000001268887
  0.0999099982225020  0.6652669160512276  0.5000000001268887
  0.0996968212523488  0.8331245541240845 -0.0000000000000000
  0.2000000030046820  0.8340142237941163  0.5000000001268887
  0.3000900147910087  0.6652669160512276  0.5000000001268887
  0.3003031917611618  0.8331245541240845  0.0000000000000000
  0.4009772204487208  0.8333767023654570  0.5000000001268887
  0.5001232141444013  0.6662666218167984  0.5000000001268887
  0.5004621217020180  0.8336235242739445  0.0000000000000000
  0.5998012056312679  0.8328335851243323  0.5000000001268887
  0.6999999880066596  0.6664871089081342  0.5000000001268887
  0.6999999880066596  0.8334295912968961 -0.0000000000000000
  0.8001988303741338  0.8328335851243323  0.5000000001268887
  0.8998767618689180  0.6662666218167984  0.5000000001268887
  0.8995378543113013  0.8336235242739445  0.0000000000000000
 -0.0074386306984615  0.0000000000000000  0.0000000000000000
  0.2000000030046820  0.0000000000000000  0.0000000000000000
  0.4074386367078185  0.0000000000000000  0.0000000000000000
  0.5935734347232072  0.0000000000000000  0.0000000000000000
  0.8064266012821945  0.0000000000000000  0.0000000000000000
 -0.0030169317394898  0.3397369628820571  0.0000000000000000
  0.2000000030046820  0.3459983249927889  0.0000000000000000
  0.4030169377488467  0.3397369628820571  0.0000000000000000
  0.5929544188926870  0.3335853664730457  0.0000000000000000
  0.8070456171127147  0.3335853664730457  0.0000000000000000
 -0.0030169317394898  0.6602630661326285  0.0000000000000000
  0.2000000030046820  0.6540017040218971  0.0000000000000000
  0.4030169377488467  0.6602630661326285  0.0000000000000000
  0.5929544188926870  0.6664146625416402  0.0000000000000000
  0.8070456171127147  0.6664146625416402  0.0000000000000000
  0.4997425149507825  0.1673691758512623  0.5000000001268887
  0.9002574610625368  0.1673691758512623  0.5000000001268887
  0.0992316159183789  0.5000000000000000  0.5000000001268887
  0.3007683970951318  0.5000000000000000  0.5000000001268887
  0.4988835752123391  0.5000000000000000  0.5000000001268887
  0.9011164008009802  0.5000000000000000  0.5000000001268887
  0.4997425149507825  0.8326307951340519  0.5000000001268887
  0.9002574610625368  0.8326307951340519  0.5000000001268887
 
  0.00000000E+00  0.00000000E+00  0.00000000E+00
  0.00000000E+00  0.00000000E+00  0.00000000E+00
  0.00000000E+00  0.00000000E+00  0.00000000E+00
  0.00000000E+00  0.00000000E+00  0.00000000E+00
  0.00000000E+00  0.00000000E+00  0.00000000E+00
  0.00000000E+00  0.00000000E+00  0.00000000E+00
  0.00000000E+00  0.00000000E+00  0.00000000E+00
  0.00000000E+00  0.00000000E+00  0.00000000E+00
  0.00000000E+00  0.00000000E+00  0.00000000E+00
  0.00000000E+00  0.00000000E+00  0.00000000E+00
  0.00000000E+00  0.00000000E+00  0.00000000E+00
  0.00000000E+00  0.00000000E+00  0.00000000E+00
  0.00000000E+00  0.00000000E+00  0.00000000E+00
  0.00000000E+00  0.00000000E+00  0.00000000E+00
  0.00000000E+00  0.00000000E+00  0.00000000E+00
  0.00000000E+00  0.00000000E+00  0.00000000E+00
  0.00000000E+00  0.00000000E+00  0.00000000E+00
  0.00000000E+00  0.00000000E+00  0.00000000E+00
  0.00000000E+00  0.00000000E+00  0.00000000E+00
  0.00000000E+00  0.00000000E+00  0.00000000E+00
  0.00000000E+00  0.00000000E+00  0.00000000E+00
  0.00000000E+00  0.00000000E+00  0.00000000E+00
  0.00000000E+00  0.00000000E+00  0.00000000E+00
  0.00000000E+00  0.00000000E+00  0.00000000E+00
  0.00000000E+00  0.00000000E+00  0.00000000E+00
  0.00000000E+00  0.00000000E+00  0.00000000E+00
  0.00000000E+00  0.00000000E+00  0.00000000E+00
  0.00000000E+00  0.00000000E+00  0.00000000E+00
  0.00000000E+00  0.00000000E+00  0.00000000E+00
  0.00000000E+00  0.00000000E+00  0.00000000E+00
  0.00000000E+00  0.00000000E+00  0.00000000E+00
  0.00000000E+00  0.00000000E+00  0.00000000E+00
  0.00000000E+00  0.00000000E+00  0.00000000E+00
  0.00000000E+00  0.00000000E+00  0.00000000E+00
  0.00000000E+00  0.00000000E+00  0.00000000E+00
  0.00000000E+00  0.00000000E+00  0.00000000E+00
  0.00000000E+00  0.00000000E+00  0.00000000E+00
  0.00000000E+00  0.00000000E+00  0.00000000E+00
  0.00000000E+00  0.00000000E+00  0.00000000E+00
  0.00000000E+00  0.00000000E+00  0.00000000E+00
  0.00000000E+00  0.00000000E+00  0.00000000E+00
  0.00000000E+00  0.00000000E+00  0.00000000E+00
  0.00000000E+00  0.00000000E+00  0.00000000E+00
  0.00000000E+00  0.00000000E+00  0.00000000E+00
  0.00000000E+00  0.00000000E+00  0.00000000E+00
  0.00000000E+00  0.00000000E+00  0.00000000E+00
  0.00000000E+00  0.00000000E+00  0.00000000E+00
  0.00000000E+00  0.00000000E+00  0.00000000E+00
  0.00000000E+00  0.00000000E+00  0.00000000E+00
  0.00000000E+00  0.00000000E+00  0.00000000E+00
  0.00000000E+00  0.00000000E+00  0.00000000E+00
  0.00000000E+00  0.00000000E+00  0.00000000E+00
  0.00000000E+00  0.00000000E+00  0.00000000E+00
  0.00000000E+00  0.00000000E+00  0.00000000E+00
  0.00000000E+00  0.00000000E+00  0.00000000E+00
  0.00000000E+00  0.00000000E+00  0.00000000E+00
  0.00000000E+00  0.00000000E+00  0.00000000E+00
  0.00000000E+00  0.00000000E+00  0.00000000E+00
  0.00000000E+00  0.00000000E+00  0.00000000E+00
  0.00000000E+00  0.00000000E+00  0.00000000E+00
  0.00000000E+00  0.00000000E+00  0.00000000E+00
  0.00000000E+00  0.00000000E+00  0.00000000E+00
  0.00000000E+00  0.00000000E+00  0.00000000E+00
  0.00000000E+00  0.00000000E+00  0.00000000E+00
  0.00000000E+00  0.00000000E+00  0.00000000E+00
  0.00000000E+00  0.00000000E+00  0.00000000E+00
  0.00000000E+00  0.00000000E+00  0.00000000E+00
  0.00000000E+00  0.00000000E+00  0.00000000E+00
  0.00000000E+00  0.00000000E+00  0.00000000E+00
  0.00000000E+00  0.00000000E+00  0.00000000E+00
  0.00000000E+00  0.00000000E+00  0.00000000E+00
  0.00000000E+00  0.00000000E+00  0.00000000E+00
  0.00000000E+00  0.00000000E+00  0.00000000E+00
  0.00000000E+00  0.00000000E+00  0.00000000E+00
  0.00000000E+00  0.00000000E+00  0.00000000E+00
