title                                   
   1.00000000000000     
     4.0337182332583303   -8.0625989541110101    4.0337182332583303
     8.0625989541110101   -4.0337182332583303    4.0337182332583303
     4.0337182332583303   -4.0337182332583312    8.0625989541110084
   Nb   O    Sr   Ti
     3    12     4     1
Direct
  0.3758054060939884  0.3758054060939884  0.3758054060939884
  0.6250000000000000  0.6250000000000000  0.6250000000000000
  0.8741945939060116  0.8741945939060116  0.8741945939060116
  0.2492558209431266  0.7527730017617174  0.2492558209431266
  0.0008914358164205  0.4999550960671186  0.4999550960671186
  0.2492558209431266  0.2492558209431266  0.7527730017617174
  0.4999550960671186  0.0008914358164205  0.4999550960671186
  0.2491085641835795  0.7500449039328814  0.7500449039328814
  0.4999550960671186  0.4999550960671186  0.0008914358164205
  0.7500449039328814  0.2491085641835795  0.7500449039328814
  0.4972269982382826  0.0007441790568734  0.0007441790568734
  0.7500449039328814  0.7500449039328814  0.2491085641835795
  0.0007441790568734  0.4972269982382826  0.0007441790568734
  0.7527730017617174  0.2492558209431266  0.2492558209431266
  0.0007441790568734  0.0007441790568734  0.4972269982382826
  0.7522839290143537  0.7522839290143537  0.7522839290143537
  0.0027404156331130  0.0027404156331130  0.0027404156331130
  0.2472595843668870  0.2472595843668870  0.2472595843668870
  0.4977160709856463  0.4977160709856463  0.4977160709856463
  0.1250000000000000  0.1250000000000000  0.1250000000000000
 
  0.00000000E+00  0.00000000E+00  0.00000000E+00
  0.00000000E+00  0.00000000E+00  0.00000000E+00
  0.00000000E+00  0.00000000E+00  0.00000000E+00
  0.00000000E+00  0.00000000E+00  0.00000000E+00
  0.00000000E+00  0.00000000E+00  0.00000000E+00
  0.00000000E+00  0.00000000E+00  0.00000000E+00
  0.00000000E+00  0.00000000E+00  0.00000000E+00
  0.00000000E+00  0.00000000E+00  0.00000000E+00
  0.00000000E+00  0.00000000E+00  0.00000000E+00
  0.00000000E+00  0.00000000E+00  0.00000000E+00
  0.00000000E+00  0.00000000E+00  0.00000000E+00
  0.00000000E+00  0.00000000E+00  0.00000000E+00
  0.00000000E+00  0.00000000E+00  0.00000000E+00
  0.00000000E+00  0.00000000E+00  0.00000000E+00
  0.00000000E+00  0.00000000E+00  0.00000000E+00
  0.00000000E+00  0.00000000E+00  0.00000000E+00
  0.00000000E+00  0.00000000E+00  0.00000000E+00
  0.00000000E+00  0.00000000E+00  0.00000000E+00
  0.00000000E+00  0.00000000E+00  0.00000000E+00
  0.00000000E+00  0.00000000E+00  0.00000000E+00
