title
1.
0.889957000 0.000000000 -5.248705000
0.000000000 -5.190380000 0.000000000
-10.279400000 0.000000000 0.000000000
8 12
Cartesian
-3.016871861 -4.969114101 -4.157614702    Hf_pv
-1.232871139 -0.221265899 -1.091090298    Hf_pv
-0.787892639 -2.373924101 -3.715442798    Hf_pv
-3.461850361 -2.816455899 -1.533262202    Hf_pv
-8.156571861 -4.969114101 -4.157614702    Hf_pv
-6.372571139 -0.221265899 -1.091090298    Hf_pv
-5.927592639 -2.373924101 -3.715442798    Hf_pv
-8.601550361 -2.816455899 -1.533262202    Hf_pv
-4.211668712 -3.480206884 -3.424013702    O
-0.038079427 -1.710173116 -1.824691298    O
0.406899073 -0.885016884 -4.449043798    O
-2.812191833 -1.335671628 -0.118158847    O
-9.351368712 -3.480206884 -3.424013702    O
-5.177779427 -1.710173116 -1.824691298    O
-4.732800927 -0.885016884 -4.449043798    O
-9.796347212 -4.305363116 -0.799661202    O
-7.506913333 -1.259518372 -2.742511347    O
-7.022229667 -3.930861628 -2.506193653    O
-6.577251167 -3.854708372 -5.130546153    O
-7.951891833 -1.335671628 -0.118158847    O
