title                                   
   1.00000000000000     
    20.1611928764602766    0.0000000000000000    0.0000000000000000
     0.0000000000000000   12.1312455440475713    0.0000000000000000
     0.0000000000000000    0.0000000000000000    4.0337963721831818
   Nb   O    Sr   Ti
    12    45    15     3
Direct
  0.0996955485735936  0.1671735905018238  0.5000000001268887
  0.3000979162321336  0.1678175788037173  0.5000000001268887
  0.4999020957865875  0.1678175788037173  0.5000000001268887
  0.7003044404532364  0.1671735905018238  0.5000000001268887
  0.1009261057653684  0.4996085833955221  0.5000000001268887
  0.6990738832614614  0.4996085833955221  0.5000000001268887
  0.8999999759879387  0.4994180654968593  0.5000000001268887
  0.1001820772797511  0.8332482832481368  0.5000000001268887
  0.3002635524652891  0.8322806726452674  0.5000000001268887
  0.4997364595534319  0.8322806726452674  0.5000000001268887
  0.6998179117470786  0.8332482832481368  0.5000000001268887
  0.8999999759879387  0.8337334988872991  0.5000000001268887
 -0.0010058493948144  0.1669231408552903  0.5000000001268887
  0.1004322374254514  0.0003156828497738  0.5000000001268887
  0.0991211204122200  0.1661493716965934  0.0000000000000000
  0.1997947543116957  0.1667359090890899  0.5000000001268887
  0.3001639610257908  0.0000588542072623  0.5000000001268887
  0.2996680194847140  0.1670047375898204  0.0000000000000000
  0.4000000060093569  0.1663631050411052  0.5000000001268887
  0.4998360509929300  0.0000588542072623  0.5000000001268887
  0.5003319925340067  0.1670047375898204  0.0000000000000000
  0.6002052726796671  0.1667359090890899  0.5000000001268887
  0.6995677516013783  0.0003156828497738  0.5000000001268887
  0.7008788686146097  0.1661493716965934  0.0000000000000000
  0.8010058614135352  0.1669231408552903  0.5000000001268887
  0.8999999759879387  0.0020107427850004  0.5000000001268887
  0.8999999759879387  0.1667317459772261  0.0000000000000000
  0.0004396850031535  0.5000401897646640  0.5000000001268887
  0.1000819471610025  0.3333730387484251  0.5000000001268887
  0.1012511411518593  0.5005303453099510  0.0000000000000000
  0.2015321419318190  0.4998437349649966  0.5000000001268887
  0.2999231724437920  0.3352896892216787  0.5000000001268887
  0.3006228124456491  0.4999704820954194  0.0000000000000000
  0.4000000060093569  0.4998560625049581  0.5000000001268887
  0.5000768395749289  0.3352896892216787  0.5000000001268887
  0.4993771995730721  0.4999704820954194  0.0000000000000000
  0.5984678850595434  0.4998437349649966  0.5000000001268887
  0.6999180418658273  0.3333730387484251  0.5000000001268887
  0.6987488478749706  0.5005303453099510  0.0000000000000000
  0.7995603270155672  0.5000401897646640  0.5000000001268887
  0.8999999759879387  0.3314864789611684  0.5000000001268887
  0.8999999759879387  0.4992092647564522  0.0000000000000000
 -0.0000271892113999  0.8329720796717693  0.5000000001268887
  0.0997239216961984  0.6663386697112171  0.5000000001268887
  0.1000561070248610  0.8333689354848086  0.0000000000000000
  0.2002234800059244  0.8335039628511601  0.5000000001268887
  0.3000094048703063  0.6646676737822756  0.5000000001268887
  0.2998125456043803  0.8329958099399620  0.0000000000000000
  0.4000000060093569  0.8338528094045909  0.5000000001268887
  0.4999906071484145  0.6646676737822756  0.5000000001268887
  0.5001874664143408  0.8329958099399620  0.0000000000000000
  0.5997765469854381  0.8335039628511601  0.5000000001268887
  0.7002760673306316  0.6663386697112171  0.5000000001268887
  0.6999438820019686  0.8333689354848086  0.0000000000000000
  0.8000272012301205  0.8329720796717693  0.5000000001268887
  0.8999999759879387  0.6664960188067525  0.5000000001268887
  0.8999999759879387  0.8340852588775294  0.0000000000000000
 -0.0038410145679076  0.0068767156400719  0.0000000000000000
  0.1992644531876131 -0.0000864930904668  0.0000000000000000
  0.4000000060093569  0.0001833552425168  0.0000000000000000
  0.6007355738037496 -0.0000864930904668  0.0000000000000000
  0.8038410265866285  0.0068767156400719  0.0000000000000000
 -0.0033621818617240  0.3267161588196424  0.0000000000000000
  0.2049266429126467  0.3404748170814891  0.0000000000000000
  0.4000000060093569  0.3454232584135908  0.0000000000000000
  0.5950733840787159  0.3404748170814891  0.0000000000000000
  0.8033621938804452  0.3267161588196424  0.0000000000000000
  0.0014796304250127  0.6665031697456720  0.0000000000000000
  0.2054590328966250  0.6595045841881076  0.0000000000000000
  0.4000000060093569  0.6542162669100522  0.0000000000000000
  0.5945409940947378  0.6595045841881076  0.0000000000000000
  0.7985203815937086  0.6665031697456720  0.0000000000000000
  0.8999999759879387  0.1668276403510159  0.5000000001268887
  0.3011292199697908  0.4998531724420844  0.5000000001268887
  0.4988707920489302  0.4998531724420844  0.5000000001268887
 
  0.00000000E+00  0.00000000E+00  0.00000000E+00
  0.00000000E+00  0.00000000E+00  0.00000000E+00
  0.00000000E+00  0.00000000E+00  0.00000000E+00
  0.00000000E+00  0.00000000E+00  0.00000000E+00
  0.00000000E+00  0.00000000E+00  0.00000000E+00
  0.00000000E+00  0.00000000E+00  0.00000000E+00
  0.00000000E+00  0.00000000E+00  0.00000000E+00
  0.00000000E+00  0.00000000E+00  0.00000000E+00
  0.00000000E+00  0.00000000E+00  0.00000000E+00
  0.00000000E+00  0.00000000E+00  0.00000000E+00
  0.00000000E+00  0.00000000E+00  0.00000000E+00
  0.00000000E+00  0.00000000E+00  0.00000000E+00
  0.00000000E+00  0.00000000E+00  0.00000000E+00
  0.00000000E+00  0.00000000E+00  0.00000000E+00
  0.00000000E+00  0.00000000E+00  0.00000000E+00
  0.00000000E+00  0.00000000E+00  0.00000000E+00
  0.00000000E+00  0.00000000E+00  0.00000000E+00
  0.00000000E+00  0.00000000E+00  0.00000000E+00
  0.00000000E+00  0.00000000E+00  0.00000000E+00
  0.00000000E+00  0.00000000E+00  0.00000000E+00
  0.00000000E+00  0.00000000E+00  0.00000000E+00
  0.00000000E+00  0.00000000E+00  0.00000000E+00
  0.00000000E+00  0.00000000E+00  0.00000000E+00
  0.00000000E+00  0.00000000E+00  0.00000000E+00
  0.00000000E+00  0.00000000E+00  0.00000000E+00
  0.00000000E+00  0.00000000E+00  0.00000000E+00
  0.00000000E+00  0.00000000E+00  0.00000000E+00
  0.00000000E+00  0.00000000E+00  0.00000000E+00
  0.00000000E+00  0.00000000E+00  0.00000000E+00
  0.00000000E+00  0.00000000E+00  0.00000000E+00
  0.00000000E+00  0.00000000E+00  0.00000000E+00
  0.00000000E+00  0.00000000E+00  0.00000000E+00
  0.00000000E+00  0.00000000E+00  0.00000000E+00
  0.00000000E+00  0.00000000E+00  0.00000000E+00
  0.00000000E+00  0.00000000E+00  0.00000000E+00
  0.00000000E+00  0.00000000E+00  0.00000000E+00
  0.00000000E+00  0.00000000E+00  0.00000000E+00
  0.00000000E+00  0.00000000E+00  0.00000000E+00
  0.00000000E+00  0.00000000E+00  0.00000000E+00
  0.00000000E+00  0.00000000E+00  0.00000000E+00
  0.00000000E+00  0.00000000E+00  0.00000000E+00
  0.00000000E+00  0.00000000E+00  0.00000000E+00
  0.00000000E+00  0.00000000E+00  0.00000000E+00
  0.00000000E+00  0.00000000E+00  0.00000000E+00
  0.00000000E+00  0.00000000E+00  0.00000000E+00
  0.00000000E+00  0.00000000E+00  0.00000000E+00
  0.00000000E+00  0.00000000E+00  0.00000000E+00
  0.00000000E+00  0.00000000E+00  0.00000000E+00
  0.00000000E+00  0.00000000E+00  0.00000000E+00
  0.00000000E+00  0.00000000E+00  0.00000000E+00
  0.00000000E+00  0.00000000E+00  0.00000000E+00
  0.00000000E+00  0.00000000E+00  0.00000000E+00
  0.00000000E+00  0.00000000E+00  0.00000000E+00
  0.00000000E+00  0.00000000E+00  0.00000000E+00
  0.00000000E+00  0.00000000E+00  0.00000000E+00
  0.00000000E+00  0.00000000E+00  0.00000000E+00
  0.00000000E+00  0.00000000E+00  0.00000000E+00
  0.00000000E+00  0.00000000E+00  0.00000000E+00
  0.00000000E+00  0.00000000E+00  0.00000000E+00
  0.00000000E+00  0.00000000E+00  0.00000000E+00
  0.00000000E+00  0.00000000E+00  0.00000000E+00
  0.00000000E+00  0.00000000E+00  0.00000000E+00
  0.00000000E+00  0.00000000E+00  0.00000000E+00
  0.00000000E+00  0.00000000E+00  0.00000000E+00
  0.00000000E+00  0.00000000E+00  0.00000000E+00
  0.00000000E+00  0.00000000E+00  0.00000000E+00
  0.00000000E+00  0.00000000E+00  0.00000000E+00
  0.00000000E+00  0.00000000E+00  0.00000000E+00
  0.00000000E+00  0.00000000E+00  0.00000000E+00
  0.00000000E+00  0.00000000E+00  0.00000000E+00
  0.00000000E+00  0.00000000E+00  0.00000000E+00
  0.00000000E+00  0.00000000E+00  0.00000000E+00
  0.00000000E+00  0.00000000E+00  0.00000000E+00
  0.00000000E+00  0.00000000E+00  0.00000000E+00
  0.00000000E+00  0.00000000E+00  0.00000000E+00
