title
1.
-4.249743000 0.000000000 -5.248705000
0.000000000 -5.190380000 0.000000000
-6.029657000 0.000000000 5.248705000
8 14
Cartesian
-3.906828861 -4.969114101 1.091090298    Hf_pv
-6.372571139 -0.221265899 -1.091090298    Hf_pv
-5.927592639 -2.373924101 -3.715442798    Hf_pv
-4.351807361 -2.816455899 3.715442798    Hf_pv
-9.046528861 -4.969114101 1.091090298    Hf_pv
-1.232871139 -0.221265899 -1.091090298    Hf_pv
-6.817549639 -2.373924101 1.533262202    Hf_pv
-3.461850361 -2.816455899 -1.533262202    Hf_pv
-5.101625712 -3.480206884 1.824691298    O
-5.177779427 -1.710173116 -1.824691298    O
-4.732800927 -0.885016884 -4.449043798    O
-5.546604212 -4.305363116 4.449043798    O
-7.022229667 -3.930861628 -2.506193653    O
-7.951891833 -1.335671628 -0.118158847    O
-4.211668712 -3.480206884 -3.424013702    O
-6.067736427 -1.710173116 3.424013702    O
-5.622757927 -0.885016884 0.799661202    O
-4.656647212 -4.305363116 -0.799661202    O
-2.367213333 -1.259518372 -2.742511347    O
-7.912186667 -3.930861628 2.742511347    O
-7.467208167 -3.854708372 0.118158847    O
-2.812191833 -1.335671628 -0.118158847    O
