title                                   
   1.00000000000000     
    20.1228398279074732    0.0000000000000000    0.0000000000000000
     0.0000000000000000   12.1083093083572582    0.0000000000000000
     0.0000000000000000    0.0000000000000000    4.0278414983606021
   Nb   O    Sr   Ti
    11    45    15     4
Direct
  0.1000374129167573  0.1678042151545440  0.5000000001268887
  0.3009432765858526  0.1668423540105004  0.5000000001268887
  0.6990567234141470  0.1668423540105004  0.5000000001268887
  0.8999625640913516  0.1678042151545440  0.5000000001268887
  0.2997394017062208  0.5000000000000000  0.5000000001268887
  0.5000000000253806  0.5000000000000000  0.5000000001268887
  0.7002605982937792  0.5000000000000000  0.5000000001268887
  0.1000374129167573  0.8321957558307701  0.5000000001268887
  0.3009432765858526  0.8331576169748139  0.5000000001268887
  0.6990567234141470  0.8331576169748139  0.5000000001268887
  0.8999625640913516  0.8321957558307701  0.5000000001268887
 -0.0000000000000000  0.1661392015503542  0.5000000001268887
  0.0999642343975017 -0.0000000000000000  0.5000000001268887
  0.1004063950810850  0.1669896615484060 -0.0000000000000000
  0.2004657470519568  0.1664804712456756  0.5000000001268887
  0.2996676639455130 -0.0000000000000000  0.5000000001268887
  0.3007153884513629  0.1665603403434043 -0.0000000000000000
  0.4011027722753628  0.1672160725377962  0.5000000001268887
  0.5000000000253806 -0.0000000000000000  0.5000000001268887
  0.5000000000253806  0.1661722353469419  0.0000000000000000
  0.5988972577206748  0.1672160725377962  0.5000000001268887
  0.7003323360544872 -0.0000000000000000  0.5000000001268887
  0.6992846115486372  0.1665603403434043 -0.0000000000000000
  0.7995342679714460  0.1664804712456756  0.5000000001268887
  0.9000357426106073 -0.0000000000000000  0.5000000001268887
  0.8995935819270241  0.1669896615484060 -0.0000000000000000
 -0.0000000000000000  0.5000000000000000  0.5000000001268887
  0.1002344720754169  0.3353238892135075  0.5000000001268887
  0.0994916151420302  0.5000000000000000 -0.0000000000000000
  0.1987505088074642  0.5000000000000000  0.5000000001268887
  0.3003234661759516  0.3334048523001249  0.5000000001268887
  0.2985631882885576  0.5000000000000000  0.0000000000000000
  0.3997301933627530  0.5000000000000000  0.5000000001268887
  0.5000000000253806  0.3318860842201623  0.5000000001268887
  0.5000000000253806  0.5000000000000000  0.0000000000000000
  0.6002698366332846  0.5000000000000000  0.5000000001268887
  0.6996765338240485  0.3334048523001249  0.5000000001268887
  0.7014368117114425  0.5000000000000000 -0.0000000000000000
  0.8012495062159389  0.5000000000000000  0.5000000001268887
  0.8997655049326918  0.3353238892135075  0.5000000001268887
  0.9005083618660790  0.5000000000000000  0.0000000000000000
 -0.0000000000000000  0.8338607694349602  0.5000000001268887
  0.1002344720754169  0.6646761398011781  0.5000000001268887
  0.1004063950810850  0.8330103094369082 -0.0000000000000000
  0.2004657470519568  0.8335194997396386  0.5000000001268887
  0.3003234661759516  0.6665951767145608  0.5000000001268887
  0.3007153884513629  0.8334396306419098  0.0000000000000000
  0.4011027722753628  0.8327838984475179  0.5000000001268887
  0.5000000000253806  0.6681139447945235  0.5000000001268887
  0.5000000000253806  0.8338277356383722  0.0000000000000000
  0.5988972577206748  0.8327838984475179  0.5000000001268887
  0.6996765338240485  0.6665951767145608  0.5000000001268887
  0.6992846115486372  0.8334396306419098  0.0000000000000000
  0.7995342679714460  0.8335194997396386  0.5000000001268887
  0.8997655049326918  0.6646761398011781  0.5000000001268887
  0.8995935819270241  0.8330103094369082 -0.0000000000000000
 -0.0000000000000000 -0.0000000000000000  0.0000000000000000
  0.2015877831715930 -0.0000000000000000  0.0000000000000000
  0.4073843615502390 -0.0000000000000000  0.0000000000000000
  0.5926156684457988 -0.0000000000000000  0.0000000000000000
  0.7984122318518100 -0.0000000000000000  0.0000000000000000
 -0.0000000000000000  0.3457437542060443  0.0000000000000000
  0.1959932020728139  0.3403265965661492  0.0000000000000000
  0.4034285788384682  0.3261178523350668  0.0000000000000000
  0.5965714511575694  0.3261178523350668  0.0000000000000000
  0.8040068129505890  0.3403265965661492  0.0000000000000000
 -0.0000000000000000  0.6542562748086413  0.0000000000000000
  0.1959932020728139  0.6596734324485366  0.0000000000000000
  0.4034285788384682  0.6738821766796190  0.0000000000000000
  0.5965714511575694  0.6738821766796190  0.0000000000000000
  0.8040068129505890  0.6596734324485366  0.0000000000000000
  0.5000000000253806  0.1657858887155441  0.5000000001268887
  0.0991617690631718  0.5000000000000000  0.5000000001268887
  0.9008382079449370  0.5000000000000000  0.5000000001268887
  0.5000000000253806  0.8342140822697706  0.5000000001268887
 
  0.00000000E+00  0.00000000E+00  0.00000000E+00
  0.00000000E+00  0.00000000E+00  0.00000000E+00
  0.00000000E+00  0.00000000E+00  0.00000000E+00
  0.00000000E+00  0.00000000E+00  0.00000000E+00
  0.00000000E+00  0.00000000E+00  0.00000000E+00
  0.00000000E+00  0.00000000E+00  0.00000000E+00
  0.00000000E+00  0.00000000E+00  0.00000000E+00
  0.00000000E+00  0.00000000E+00  0.00000000E+00
  0.00000000E+00  0.00000000E+00  0.00000000E+00
  0.00000000E+00  0.00000000E+00  0.00000000E+00
  0.00000000E+00  0.00000000E+00  0.00000000E+00
  0.00000000E+00  0.00000000E+00  0.00000000E+00
  0.00000000E+00  0.00000000E+00  0.00000000E+00
  0.00000000E+00  0.00000000E+00  0.00000000E+00
  0.00000000E+00  0.00000000E+00  0.00000000E+00
  0.00000000E+00  0.00000000E+00  0.00000000E+00
  0.00000000E+00  0.00000000E+00  0.00000000E+00
  0.00000000E+00  0.00000000E+00  0.00000000E+00
  0.00000000E+00  0.00000000E+00  0.00000000E+00
  0.00000000E+00  0.00000000E+00  0.00000000E+00
  0.00000000E+00  0.00000000E+00  0.00000000E+00
  0.00000000E+00  0.00000000E+00  0.00000000E+00
  0.00000000E+00  0.00000000E+00  0.00000000E+00
  0.00000000E+00  0.00000000E+00  0.00000000E+00
  0.00000000E+00  0.00000000E+00  0.00000000E+00
  0.00000000E+00  0.00000000E+00  0.00000000E+00
  0.00000000E+00  0.00000000E+00  0.00000000E+00
  0.00000000E+00  0.00000000E+00  0.00000000E+00
  0.00000000E+00  0.00000000E+00  0.00000000E+00
  0.00000000E+00  0.00000000E+00  0.00000000E+00
  0.00000000E+00  0.00000000E+00  0.00000000E+00
  0.00000000E+00  0.00000000E+00  0.00000000E+00
  0.00000000E+00  0.00000000E+00  0.00000000E+00
  0.00000000E+00  0.00000000E+00  0.00000000E+00
  0.00000000E+00  0.00000000E+00  0.00000000E+00
  0.00000000E+00  0.00000000E+00  0.00000000E+00
  0.00000000E+00  0.00000000E+00  0.00000000E+00
  0.00000000E+00  0.00000000E+00  0.00000000E+00
  0.00000000E+00  0.00000000E+00  0.00000000E+00
  0.00000000E+00  0.00000000E+00  0.00000000E+00
  0.00000000E+00  0.00000000E+00  0.00000000E+00
  0.00000000E+00  0.00000000E+00  0.00000000E+00
  0.00000000E+00  0.00000000E+00  0.00000000E+00
  0.00000000E+00  0.00000000E+00  0.00000000E+00
  0.00000000E+00  0.00000000E+00  0.00000000E+00
  0.00000000E+00  0.00000000E+00  0.00000000E+00
  0.00000000E+00  0.00000000E+00  0.00000000E+00
  0.00000000E+00  0.00000000E+00  0.00000000E+00
  0.00000000E+00  0.00000000E+00  0.00000000E+00
  0.00000000E+00  0.00000000E+00  0.00000000E+00
  0.00000000E+00  0.00000000E+00  0.00000000E+00
  0.00000000E+00  0.00000000E+00  0.00000000E+00
  0.00000000E+00  0.00000000E+00  0.00000000E+00
  0.00000000E+00  0.00000000E+00  0.00000000E+00
  0.00000000E+00  0.00000000E+00  0.00000000E+00
  0.00000000E+00  0.00000000E+00  0.00000000E+00
  0.00000000E+00  0.00000000E+00  0.00000000E+00
  0.00000000E+00  0.00000000E+00  0.00000000E+00
  0.00000000E+00  0.00000000E+00  0.00000000E+00
  0.00000000E+00  0.00000000E+00  0.00000000E+00
  0.00000000E+00  0.00000000E+00  0.00000000E+00
  0.00000000E+00  0.00000000E+00  0.00000000E+00
  0.00000000E+00  0.00000000E+00  0.00000000E+00
  0.00000000E+00  0.00000000E+00  0.00000000E+00
  0.00000000E+00  0.00000000E+00  0.00000000E+00
  0.00000000E+00  0.00000000E+00  0.00000000E+00
  0.00000000E+00  0.00000000E+00  0.00000000E+00
  0.00000000E+00  0.00000000E+00  0.00000000E+00
  0.00000000E+00  0.00000000E+00  0.00000000E+00
  0.00000000E+00  0.00000000E+00  0.00000000E+00
  0.00000000E+00  0.00000000E+00  0.00000000E+00
  0.00000000E+00  0.00000000E+00  0.00000000E+00
  0.00000000E+00  0.00000000E+00  0.00000000E+00
  0.00000000E+00  0.00000000E+00  0.00000000E+00
  0.00000000E+00  0.00000000E+00  0.00000000E+00
