title                                   
   1.00000000000000     
     0.0000000000000000    4.0230863916063697   -8.0422638952566849
     0.0000000000000000   -8.0422638952566849    4.0230863916063697
    -4.0268264243232723    0.0000000000000000    0.0000000000000000
   Nb   O    Sr   Ti
     2     9     3     1
Direct
  0.1660627137898522  0.8339372862101481  0.5000000000000000
  0.8339372862101481  0.1660627137898522  0.5000000000000000
  0.1653569127616701  0.8346430872383300 -0.0000000000000000
 -0.0000000000000000  0.5000000000000000  0.5000000000000000
  0.8301481987098643  0.6645116823447015  0.5000000000000000
  0.8346430872383300  0.1653569127616701 -0.0000000000000000
  0.6645116823447015  0.8301481987098643  0.5000000000000000
  0.5000000000000000 -0.0000000000000000  0.5000000000000000
  0.5000000000000000  0.5000000000000000 -0.0000000000000000
  0.3354883176552986  0.1698518012901356  0.5000000000000000
  0.1698518012901356  0.3354883176552986  0.5000000000000000
  0.6591126258056367  0.3408873741943635  0.0000000000000000
  0.3408873741943635  0.6591126258056367 -0.0000000000000000
 -0.0000000000000000 -0.0000000000000000 -0.0000000000000000
  0.5000000000000000  0.5000000000000000  0.5000000000000000
 
  0.00000000E+00  0.00000000E+00  0.00000000E+00
  0.00000000E+00  0.00000000E+00  0.00000000E+00
  0.00000000E+00  0.00000000E+00  0.00000000E+00
  0.00000000E+00  0.00000000E+00  0.00000000E+00
  0.00000000E+00  0.00000000E+00  0.00000000E+00
  0.00000000E+00  0.00000000E+00  0.00000000E+00
  0.00000000E+00  0.00000000E+00  0.00000000E+00
  0.00000000E+00  0.00000000E+00  0.00000000E+00
  0.00000000E+00  0.00000000E+00  0.00000000E+00
  0.00000000E+00  0.00000000E+00  0.00000000E+00
  0.00000000E+00  0.00000000E+00  0.00000000E+00
  0.00000000E+00  0.00000000E+00  0.00000000E+00
  0.00000000E+00  0.00000000E+00  0.00000000E+00
  0.00000000E+00  0.00000000E+00  0.00000000E+00
  0.00000000E+00  0.00000000E+00  0.00000000E+00
