title                                   
   1.00000000000000     
    19.8734661300896605    0.0000000000000000    0.0000000000000000
     0.0000000000000000   11.9152589256083150    0.0000000000000000
     0.0000000000000000    0.0000000000000000    3.9800702866299322
   Nb   O    Sr   Ti
     4    45    15    11
Direct
  0.6988392562378885  0.1666712694030835  0.5000000001268887
  0.9011607077567099  0.1666712694030835  0.5000000001268887
  0.3000000119933404  0.4983722277672040  0.5000000001268887
  0.3000000119933404  0.8349605997878543  0.5000000001268887
  0.0010675842902557  0.1666666236377104  0.5000000001268887
  0.0999375763166453 -0.0001538316054119  0.5000000001268887
  0.1009013063129079  0.1666660537891250  0.0000000000000000
  0.2002122508633813  0.1666664420485749  0.5000000001268887
  0.3000000119933404  0.0009206635269404  0.5000000001268887
  0.3000000119933404  0.1666659456735017  0.0000000000000000
  0.3997877581506575  0.1666664420485749  0.5000000001268887
  0.5000624247289057 -0.0001538316054119  0.5000000001268887
  0.4990986947326428  0.1666660537891250  0.0000000000000000
  0.5989324396964251  0.1666666236377104  0.5000000001268887
  0.7001400143801675 -0.0003467256060441  0.5000000001268887
  0.6991528613743149  0.1666650546371540  0.0000000000000000
  0.8000000120187210  0.1666663905889163  0.5000000001268887
  0.8998599496144308 -0.0003467256060441  0.5000000001268887
  0.9008471026202834  0.1666650546371540  0.0000000000000000
 -0.0003461773783385  0.4997097066786860  0.5000000001268887
  0.0999377555752706  0.3334871242381870  0.5000000001268887
  0.0995519787386499  0.5001096690988035  0.0000000000000000
  0.1995701933905361  0.5007828285922948  0.5000000001268887
  0.3000000119933404  0.3324134219691689  0.5000000001268887
  0.3000000119933404  0.4992904216815192  0.0000000000000000
  0.4004298156235028  0.5007828285922948  0.5000000001268887
  0.5000622454702803  0.3334871242381870  0.5000000001268887
  0.5004480223069010  0.5001096690988035  0.0000000000000000
  0.6003462013650193  0.4997097066786860  0.5000000001268887
  0.7001401149357164  0.3336789058560501  0.5000000001268887
  0.7002504617640199  0.5001383262244588  0.0000000000000000
  0.8000000120187210  0.4997353139318191  0.5000000001268887
  0.8998598490588819  0.3336789058560501  0.5000000001268887
  0.8997495022305784  0.5001383262244588  0.0000000000000000
 -0.0003459366416177  0.8336233607132296  0.5000000001268887
  0.1000640141021753  0.6666665925409508  0.5000000001268887
  0.0995517902033597  0.8332239998232260  0.0000000000000000
  0.1995701712360481  0.8325507866203155  0.5000000001268887
  0.3000000119933404  0.6666664240160257  0.5000000001268887
  0.3000000119933404  0.8340433129177146  0.0000000000000000
  0.4004298377779908  0.8325507866203155  0.5000000001268887
  0.4999359869433757  0.6666665925409508  0.5000000001268887
  0.5004482108421910  0.8332239998232260  0.0000000000000000
  0.6003459606282985  0.8336233607132296  0.5000000001268887
  0.6997911951872061  0.6666695140720228  0.5000000001268887
  0.7002507748215206  0.8331988972347778  0.0000000000000000
  0.8000000120187210  0.8335978838235902  0.5000000001268887
  0.9002087688073922  0.6666695140720228  0.5000000001268887
  0.8997491891730777  0.8331988972347778  0.0000000000000000
  0.0032361063870024 -0.0061161402230878  0.0000000000000000
  0.1965907618866264  0.0059960990218609  0.0000000000000000
  0.4034092471274126  0.0059960990218609  0.0000000000000000
  0.5967639175996782 -0.0061161402230878  0.0000000000000000
  0.8000000120187210 -0.0132617929458447  0.0000000000000000
  0.0032353637611968  0.3394504702682001  0.0000000000000000
  0.1965907777753874  0.3273365930028233  0.0000000000000000
  0.4034092312386516  0.3273365930028233  0.0000000000000000
  0.5967646602254838  0.3394504702682001  0.0000000000000000
  0.8000000120187210  0.3465982720029513  0.0000000000000000
 -0.0009012274375291  0.6666661128830178  0.0000000000000000
  0.1920604641047803  0.6666666575151958  0.0000000000000000
  0.4079395449092587  0.6666666575151958  0.0000000000000000
  0.6009012514242100  0.6666661128830178  0.0000000000000000
  0.8000000120187210  0.6666651143854426  0.0000000000000000
  0.1006810478185948  0.1666663956091932  0.5000000001268887
  0.3000000119933404  0.1666668456888888  0.5000000001268887
  0.4993189532269560  0.1666663956091932  0.5000000001268887
  0.0983547045839566  0.5000174085159227  0.5000000001268887
  0.5016452964615944  0.5000174085159227  0.5000000001268887
  0.6998267370719936  0.5030368721460792  0.5000000001268887
  0.9001732269226047  0.5030368721460792  0.5000000001268887
  0.0983548142803480  0.8333158396480438  0.5000000001268887
  0.5016451867652028  0.8333158396480438  0.5000000001268887
  0.6998266189225625  0.8302884986709946  0.5000000001268887
  0.9001733450720358  0.8302884986709946  0.5000000001268887
 
  0.00000000E+00  0.00000000E+00  0.00000000E+00
  0.00000000E+00  0.00000000E+00  0.00000000E+00
  0.00000000E+00  0.00000000E+00  0.00000000E+00
  0.00000000E+00  0.00000000E+00  0.00000000E+00
  0.00000000E+00  0.00000000E+00  0.00000000E+00
  0.00000000E+00  0.00000000E+00  0.00000000E+00
  0.00000000E+00  0.00000000E+00  0.00000000E+00
  0.00000000E+00  0.00000000E+00  0.00000000E+00
  0.00000000E+00  0.00000000E+00  0.00000000E+00
  0.00000000E+00  0.00000000E+00  0.00000000E+00
  0.00000000E+00  0.00000000E+00  0.00000000E+00
  0.00000000E+00  0.00000000E+00  0.00000000E+00
  0.00000000E+00  0.00000000E+00  0.00000000E+00
  0.00000000E+00  0.00000000E+00  0.00000000E+00
  0.00000000E+00  0.00000000E+00  0.00000000E+00
  0.00000000E+00  0.00000000E+00  0.00000000E+00
  0.00000000E+00  0.00000000E+00  0.00000000E+00
  0.00000000E+00  0.00000000E+00  0.00000000E+00
  0.00000000E+00  0.00000000E+00  0.00000000E+00
  0.00000000E+00  0.00000000E+00  0.00000000E+00
  0.00000000E+00  0.00000000E+00  0.00000000E+00
  0.00000000E+00  0.00000000E+00  0.00000000E+00
  0.00000000E+00  0.00000000E+00  0.00000000E+00
  0.00000000E+00  0.00000000E+00  0.00000000E+00
  0.00000000E+00  0.00000000E+00  0.00000000E+00
  0.00000000E+00  0.00000000E+00  0.00000000E+00
  0.00000000E+00  0.00000000E+00  0.00000000E+00
  0.00000000E+00  0.00000000E+00  0.00000000E+00
  0.00000000E+00  0.00000000E+00  0.00000000E+00
  0.00000000E+00  0.00000000E+00  0.00000000E+00
  0.00000000E+00  0.00000000E+00  0.00000000E+00
  0.00000000E+00  0.00000000E+00  0.00000000E+00
  0.00000000E+00  0.00000000E+00  0.00000000E+00
  0.00000000E+00  0.00000000E+00  0.00000000E+00
  0.00000000E+00  0.00000000E+00  0.00000000E+00
  0.00000000E+00  0.00000000E+00  0.00000000E+00
  0.00000000E+00  0.00000000E+00  0.00000000E+00
  0.00000000E+00  0.00000000E+00  0.00000000E+00
  0.00000000E+00  0.00000000E+00  0.00000000E+00
  0.00000000E+00  0.00000000E+00  0.00000000E+00
  0.00000000E+00  0.00000000E+00  0.00000000E+00
  0.00000000E+00  0.00000000E+00  0.00000000E+00
  0.00000000E+00  0.00000000E+00  0.00000000E+00
  0.00000000E+00  0.00000000E+00  0.00000000E+00
  0.00000000E+00  0.00000000E+00  0.00000000E+00
  0.00000000E+00  0.00000000E+00  0.00000000E+00
  0.00000000E+00  0.00000000E+00  0.00000000E+00
  0.00000000E+00  0.00000000E+00  0.00000000E+00
  0.00000000E+00  0.00000000E+00  0.00000000E+00
  0.00000000E+00  0.00000000E+00  0.00000000E+00
  0.00000000E+00  0.00000000E+00  0.00000000E+00
  0.00000000E+00  0.00000000E+00  0.00000000E+00
  0.00000000E+00  0.00000000E+00  0.00000000E+00
  0.00000000E+00  0.00000000E+00  0.00000000E+00
  0.00000000E+00  0.00000000E+00  0.00000000E+00
  0.00000000E+00  0.00000000E+00  0.00000000E+00
  0.00000000E+00  0.00000000E+00  0.00000000E+00
  0.00000000E+00  0.00000000E+00  0.00000000E+00
  0.00000000E+00  0.00000000E+00  0.00000000E+00
  0.00000000E+00  0.00000000E+00  0.00000000E+00
  0.00000000E+00  0.00000000E+00  0.00000000E+00
  0.00000000E+00  0.00000000E+00  0.00000000E+00
  0.00000000E+00  0.00000000E+00  0.00000000E+00
  0.00000000E+00  0.00000000E+00  0.00000000E+00
  0.00000000E+00  0.00000000E+00  0.00000000E+00
  0.00000000E+00  0.00000000E+00  0.00000000E+00
  0.00000000E+00  0.00000000E+00  0.00000000E+00
  0.00000000E+00  0.00000000E+00  0.00000000E+00
  0.00000000E+00  0.00000000E+00  0.00000000E+00
  0.00000000E+00  0.00000000E+00  0.00000000E+00
  0.00000000E+00  0.00000000E+00  0.00000000E+00
  0.00000000E+00  0.00000000E+00  0.00000000E+00
  0.00000000E+00  0.00000000E+00  0.00000000E+00
  0.00000000E+00  0.00000000E+00  0.00000000E+00
  0.00000000E+00  0.00000000E+00  0.00000000E+00
