title                                   
   1.00000000000000     
    20.2301312132598845    0.0000000000000000    0.0000000000000000
     0.0000000000000000   12.1730636406265802    0.0000000000000000
     0.0000000000000000    0.0000000000000000    4.0475431693794048
   Nb   O    Sr   Ti
    14    45    15     1
Direct
  0.2989905418709101  0.1666852907076167  0.5000000001268887
  0.4995649925172257  0.1667302400233377  0.5000000001268887
  0.7004349955148141  0.1667302400233377  0.5000000001268887
  0.9010094461103694  0.1666852907076167  0.5000000001268887
  0.1000000010201703  0.4994371604644143  0.5000000001268887
  0.2995402438715106  0.4996638785562563  0.5000000001268887
  0.4998230337718959  0.4998515286917254  0.5000000001268887
  0.7001769542601441  0.4998515286917254  0.5000000001268887
  0.9004597441097683  0.4996638785562563  0.5000000001268887
  0.1000000010201703  0.8339052982575925  0.5000000001268887
  0.2995087028006175  0.8336526841607781  0.5000000001268887
  0.4998049617238622  0.8334184624761434  0.5000000001268887
  0.7001950263081781  0.8334184624761434  0.5000000001268887
  0.9004912851806612  0.8336526841607781  0.5000000001268887
  0.0012577921858576  0.1666591395216303  0.5000000001268887
  0.1000000010201703  0.0018874754984900  0.5000000001268887
  0.1000000010201703  0.1666634923669925  0.0000000000000000
  0.1987422108188245  0.1666591395216303  0.5000000001268887
  0.2998774682504645  0.0002600580653744  0.5000000001268887
  0.2992497830657595  0.1666735192296527  0.0000000000000000
  0.3993567656037938  0.1666518107473582  0.5000000001268887
  0.4998216762356173  0.0000087237520276  0.5000000001268887
  0.4997500087879810  0.1666914878669905  0.0000000000000000
  0.6000000239866807  0.1666467694283549  0.5000000001268887
  0.7001783117964231  0.0000087237520276  0.5000000001268887
  0.7002499792440596  0.1666914878669905  0.0000000000000000
  0.8006432524242844  0.1666518107473582  0.5000000001268887
  0.9001225197308148  0.0002600580653744  0.5000000001268887
  0.9007502049155198  0.1666735192296527  0.0000000000000000
  0.0002387178130477  0.5002344338674862  0.5000000001268887
  0.1000000010201703  0.3314429723427632  0.5000000001268887
  0.1000000010201703  0.4991699354762096  0.0000000000000000
  0.1997612851916342  0.5002344338674862  0.5000000001268887
  0.2998801712858607  0.3330449867051026  0.5000000001268887
  0.3002405830251055  0.5004831646387428  0.0000000000000000
  0.3997543875907485  0.4998587495072428  0.5000000001268887
  0.4998223483242580  0.3332558584106609  0.5000000001268887
  0.4998601019636548  0.4999767631584058  0.0000000000000000
  0.6000000239866807  0.4998474314620474  0.5000000001268887
  0.7001776397077821  0.3332558584106609  0.5000000001268887
  0.7001398860683856  0.4999767631584058  0.0000000000000000
  0.8002456304373292  0.4998587495072428  0.5000000001268887
  0.9001198166954184  0.3330449867051026  0.5000000001268887
  0.8997594049561737  0.5004831646387428  0.0000000000000000
  0.0002304787125770  0.8331077257571707  0.5000000001268887
  0.1000000010201703  0.6666712510581388  0.5000000001268887
  0.1000000010201703  0.8341682239464908  0.0000000000000000
  0.1997695242921050  0.8331077257571707  0.5000000001268887
  0.2995802430507952  0.6666960875167245  0.5000000001268887
  0.3002302302547816  0.8328433206845117  0.0000000000000000
  0.3997676571062943  0.8334893718797742  0.5000000001268887
  0.4999142093812127  0.6667354654433717  0.5000000001268887
  0.4998527033012412  0.8333322708392042  0.0000000000000000
  0.6000000239866807  0.8335065135759823  0.5000000001268887
  0.7000857786508273  0.6667354654433717  0.5000000001268887
  0.7001472847307991  0.8333322708392042  0.0000000000000000
  0.8002323609217833  0.8334893718797742  0.5000000001268887
  0.9004197449304840  0.6666960875167245  0.5000000001268887
  0.8997697577264969  0.8328433206845117  0.0000000000000000
  0.0045109405909801  0.0070268052497169  0.0000000000000000
  0.1954890624137020  0.0070268052497169  0.0000000000000000
  0.3986866053020426 -0.0000903177570001  0.0000000000000000
  0.6000000239866807  0.0003085395883767  0.0000000000000000
  0.8013134127260352 -0.0000903177570001  0.0000000000000000
  0.0045128982161290  0.3263199328038370  0.0000000000000000
  0.1954871047885531  0.3263199328038370  0.0000000000000000
  0.3986857193982808  0.3334547921909841  0.0000000000000000
  0.6000000239866807  0.3330658853342188  0.0000000000000000
  0.8013142986297973  0.3334547921909841  0.0000000000000000
 -0.0001148400151415  0.6666487032747995  0.0000000000000000
  0.2001148430198235  0.6666487032747995  0.0000000000000000
  0.3993749316274545  0.6666346556849582  0.0000000000000000
  0.6000000239866807  0.6666265348925736  0.0000000000000000
  0.8006250864006237  0.6666346556849582  0.0000000000000000
  0.1000000010201703  0.1666531839247543  0.5000000001268887
 
  0.00000000E+00  0.00000000E+00  0.00000000E+00
  0.00000000E+00  0.00000000E+00  0.00000000E+00
  0.00000000E+00  0.00000000E+00  0.00000000E+00
  0.00000000E+00  0.00000000E+00  0.00000000E+00
  0.00000000E+00  0.00000000E+00  0.00000000E+00
  0.00000000E+00  0.00000000E+00  0.00000000E+00
  0.00000000E+00  0.00000000E+00  0.00000000E+00
  0.00000000E+00  0.00000000E+00  0.00000000E+00
  0.00000000E+00  0.00000000E+00  0.00000000E+00
  0.00000000E+00  0.00000000E+00  0.00000000E+00
  0.00000000E+00  0.00000000E+00  0.00000000E+00
  0.00000000E+00  0.00000000E+00  0.00000000E+00
  0.00000000E+00  0.00000000E+00  0.00000000E+00
  0.00000000E+00  0.00000000E+00  0.00000000E+00
  0.00000000E+00  0.00000000E+00  0.00000000E+00
  0.00000000E+00  0.00000000E+00  0.00000000E+00
  0.00000000E+00  0.00000000E+00  0.00000000E+00
  0.00000000E+00  0.00000000E+00  0.00000000E+00
  0.00000000E+00  0.00000000E+00  0.00000000E+00
  0.00000000E+00  0.00000000E+00  0.00000000E+00
  0.00000000E+00  0.00000000E+00  0.00000000E+00
  0.00000000E+00  0.00000000E+00  0.00000000E+00
  0.00000000E+00  0.00000000E+00  0.00000000E+00
  0.00000000E+00  0.00000000E+00  0.00000000E+00
  0.00000000E+00  0.00000000E+00  0.00000000E+00
  0.00000000E+00  0.00000000E+00  0.00000000E+00
  0.00000000E+00  0.00000000E+00  0.00000000E+00
  0.00000000E+00  0.00000000E+00  0.00000000E+00
  0.00000000E+00  0.00000000E+00  0.00000000E+00
  0.00000000E+00  0.00000000E+00  0.00000000E+00
  0.00000000E+00  0.00000000E+00  0.00000000E+00
  0.00000000E+00  0.00000000E+00  0.00000000E+00
  0.00000000E+00  0.00000000E+00  0.00000000E+00
  0.00000000E+00  0.00000000E+00  0.00000000E+00
  0.00000000E+00  0.00000000E+00  0.00000000E+00
  0.00000000E+00  0.00000000E+00  0.00000000E+00
  0.00000000E+00  0.00000000E+00  0.00000000E+00
  0.00000000E+00  0.00000000E+00  0.00000000E+00
  0.00000000E+00  0.00000000E+00  0.00000000E+00
  0.00000000E+00  0.00000000E+00  0.00000000E+00
  0.00000000E+00  0.00000000E+00  0.00000000E+00
  0.00000000E+00  0.00000000E+00  0.00000000E+00
  0.00000000E+00  0.00000000E+00  0.00000000E+00
  0.00000000E+00  0.00000000E+00  0.00000000E+00
  0.00000000E+00  0.00000000E+00  0.00000000E+00
  0.00000000E+00  0.00000000E+00  0.00000000E+00
  0.00000000E+00  0.00000000E+00  0.00000000E+00
  0.00000000E+00  0.00000000E+00  0.00000000E+00
  0.00000000E+00  0.00000000E+00  0.00000000E+00
  0.00000000E+00  0.00000000E+00  0.00000000E+00
  0.00000000E+00  0.00000000E+00  0.00000000E+00
  0.00000000E+00  0.00000000E+00  0.00000000E+00
  0.00000000E+00  0.00000000E+00  0.00000000E+00
  0.00000000E+00  0.00000000E+00  0.00000000E+00
  0.00000000E+00  0.00000000E+00  0.00000000E+00
  0.00000000E+00  0.00000000E+00  0.00000000E+00
  0.00000000E+00  0.00000000E+00  0.00000000E+00
  0.00000000E+00  0.00000000E+00  0.00000000E+00
  0.00000000E+00  0.00000000E+00  0.00000000E+00
  0.00000000E+00  0.00000000E+00  0.00000000E+00
  0.00000000E+00  0.00000000E+00  0.00000000E+00
  0.00000000E+00  0.00000000E+00  0.00000000E+00
  0.00000000E+00  0.00000000E+00  0.00000000E+00
  0.00000000E+00  0.00000000E+00  0.00000000E+00
  0.00000000E+00  0.00000000E+00  0.00000000E+00
  0.00000000E+00  0.00000000E+00  0.00000000E+00
  0.00000000E+00  0.00000000E+00  0.00000000E+00
  0.00000000E+00  0.00000000E+00  0.00000000E+00
  0.00000000E+00  0.00000000E+00  0.00000000E+00
  0.00000000E+00  0.00000000E+00  0.00000000E+00
  0.00000000E+00  0.00000000E+00  0.00000000E+00
  0.00000000E+00  0.00000000E+00  0.00000000E+00
  0.00000000E+00  0.00000000E+00  0.00000000E+00
  0.00000000E+00  0.00000000E+00  0.00000000E+00
  0.00000000E+00  0.00000000E+00  0.00000000E+00
